&CONTROL
   tprnfor          = .true.
   pseudo_dir       = '/users/kbadger1/espresso/pseudo/pslibrary.1.0.0/pbe/PSEUDOPOTENTIALS/'
/
&SYSTEM
   ecutwfc          = 40
   ecutrho          = 410
   nosym            = .true.
   occupations      = 'smearing'
   degauss          = 0.001
   smearing         = 'marzari-vanderbilt'
   nspin            = 1
   input_dft        = 'beef-vdw'
   ntyp             = 3
   nat              = 39
   ibrav            = 0
/
&ELECTRONS
   mixing_mode      = 'local-TF'
/
&IONS
/
&CELL
/
&FCP
/
&RISM
/
ATOMIC_SPECIES
Pt 195.084 Pt.pbe-n-kjpaw_psl.1.0.0.UPF
C 12.011 C.pbe-n-kjpaw_psl.1.0.0.UPF
H 1.008 H.pbe-kjpaw_psl.1.0.0.UPF

K_POINTS automatic
5 5 1  0 0 0

CELL_PARAMETERS angstrom
8.48528137423857 0.00000000000000 0.00000000000000
4.24264068711929 7.34846922834953 0.00000000000000
0.00000000000000 0.00000000000000 23.92820323027551

ATOMIC_POSITIONS angstrom
Pt 0.0000000000 0.0000000000 8.5000000000   0 0 0
Pt 2.8284271247 0.0000000000 8.5000000000   0 0 0
Pt 5.6568542495 0.0000000000 8.5000000000   0 0 0
Pt 1.4142135624 2.4494897428 8.5000000000   0 0 0
Pt 4.2426406871 2.4494897428 8.5000000000   0 0 0
Pt 7.0710678119 2.4494897428 8.5000000000   0 0 0
Pt 2.8284271247 4.8989794856 8.5000000000   0 0 0
Pt 5.6568542495 4.8989794856 8.5000000000   0 0 0
Pt 8.4852813742 4.8989794856 8.5000000000   0 0 0
Pt 1.4142135624 0.8164965809 10.8094010768   0 0 0
Pt 4.2426406871 0.8164965809 10.8094010768   0 0 0
Pt 7.0710678119 0.8164965809 10.8094010768   0 0 0
Pt 2.8284271247 3.2659863237 10.8094010768   0 0 0
Pt 5.6568542495 3.2659863237 10.8094010768   0 0 0
Pt 8.4852813742 3.2659863237 10.8094010768   0 0 0
Pt 4.2426406871 5.7154760665 10.8094010768   0 0 0
Pt 7.0710678119 5.7154760665 10.8094010768   0 0 0
Pt 9.8994949366 5.7154760665 10.8094010768   0 0 0
Pt 0.0285243179 1.6385218661 13.1647126497  
Pt 2.7996849006 1.6385241267 13.1645332390  
Pt 5.6568153062 1.6509646208 13.0545615460  
Pt 1.4141599807 4.0648948191 13.1642034662  
Pt 4.2186714112 4.0953715276 13.1044586382  
Pt 7.0952555400 4.0953548920 13.1044732624  
Pt 2.8467278027 6.5447590891 13.1318815256  
Pt 5.6569906979 6.5500311784 13.1209508868  
Pt 8.4671264079 6.5447510958 13.1319807894  
Pt -0.0486235118 0.0026536833 15.5582883398  
Pt 2.8774676994 0.0036298255 15.5585377708  
Pt 5.6570744621 0.0724968727 15.3955383550  
Pt 1.4115253064 2.6082261554 15.8880583979  
Pt 4.2810974445 2.4543324856 15.3947303498  
Pt 7.0314180731 2.4543126666 15.3949347282  
Pt 2.9087452772 4.9597840329 15.5299534437  
Pt 5.6570592539 4.8625664029 15.3833402869  
Pt 8.4051827712 4.9608205282 15.5304432843  
C 1.4141226895 0.6892561960 16.6031876315  
H 1.4087844403 1.9880458815 17.4459075668  
C 1.4145187343 4.5383164304 16.6324808628  

