&CONTROL
   tprnfor          = .true.
   pseudo_dir       = '/users/kbadger1/espresso/pseudo/pslibrary.1.0.0/pbe/PSEUDOPOTENTIALS/'
/
&SYSTEM
   ecutwfc          = 40
   ecutrho          = 410
   nosym            = .true.
   occupations      = 'smearing'
   degauss          = 0.02
   smearing         = 'marzari-vanderbilt'
   nspin            = 1
   input_dft        = 'beef-vdw'
   ntyp             = 2
   nat              = 37
   ibrav            = 0
/
&ELECTRONS
   conv_thr         = 1e-08
   mixing_mode      = 'local-TF'
/
&IONS
/
&CELL
/
&FCP
/
&RISM
/
ATOMIC_SPECIES
Pt 195.084 Pt.pbe-n-kjpaw_psl.1.0.0.UPF
H 1.008 H.pbe-kjpaw_psl.1.0.0.UPF

K_POINTS automatic
5 5 1  0 0 0

CELL_PARAMETERS angstrom
8.48528137423857 0.00000000000000 0.00000000000000
4.24264068711929 7.34846922834953 0.00000000000000
0.00000000000000 0.00000000000000 23.92820323027551

ATOMIC_POSITIONS angstrom
Pt 0.0000000000 0.0000000000 8.5000000000   0 0 0
Pt 2.8284271247 0.0000000000 8.5000000000   0 0 0
Pt 5.6568542495 0.0000000000 8.5000000000   0 0 0
Pt 1.4142135624 2.4494897428 8.5000000000   0 0 0
Pt 4.2426406871 2.4494897428 8.5000000000   0 0 0
Pt 7.0710678119 2.4494897428 8.5000000000   0 0 0
Pt 2.8284271247 4.8989794856 8.5000000000   0 0 0
Pt 5.6568542495 4.8989794856 8.5000000000   0 0 0
Pt 8.4852813742 4.8989794856 8.5000000000   0 0 0
Pt 1.4142135624 0.8164965809 10.8094010768   0 0 0
Pt 4.2426406871 0.8164965809 10.8094010768   0 0 0
Pt 7.0710678119 0.8164965809 10.8094010768   0 0 0
Pt 2.8284271247 3.2659863237 10.8094010768   0 0 0
Pt 5.6568542495 3.2659863237 10.8094010768   0 0 0
Pt 8.4852813742 3.2659863237 10.8094010768   0 0 0
Pt 4.2426406871 5.7154760665 10.8094010768   0 0 0
Pt 7.0710678119 5.7154760665 10.8094010768   0 0 0
Pt 9.8994949366 5.7154760665 10.8094010768   0 0 0
Pt 0.0072508493 1.6344573980 13.1037998340  
Pt 2.8278432125 1.6330455115 13.1075802938  
Pt 5.6600252898 1.6336966468 13.0873074550  
Pt 1.4168195060 4.0771327108 13.0995315465  
Pt 4.2445541336 4.0854081481 13.0872110187  
Pt 7.0746924882 4.0849561258 13.0880523291  
Pt 2.8347920450 6.5360092349 13.0939754114  
Pt 5.6614850240 6.5380203870 13.1037843325  
Pt 8.4816147664 6.5374754704 13.0994803112  
Pt -0.0198562876 -0.0106835775 15.4490286201  
Pt 2.8706216051 -0.0146604694 15.4720617740  
Pt 5.6686078632 0.0067558832 15.4204891240  
Pt 1.4219142155 2.4944199186 15.4722556394  
Pt 4.2684314001 2.4651837491 15.4142298743  
Pt 7.0695245964 2.4602027598 15.4166604183  
Pt 2.8395703792 4.9069137012 15.4205781152  
Pt 5.6646303169 4.8934056828 15.4166559642  
Pt 8.4928917181 4.9041191430 15.4201012235  
H 1.5934154034 0.9204870205 16.3542533113  

