&CONTROL
   tprnfor          = .true.
   pseudo_dir       = '/users/kbadger1/espresso/pseudo/pslibrary.1.0.0/pbe/PSEUDOPOTENTIALS/'
/
&SYSTEM
   ecutwfc          = 40
   ecutrho          = 410
   nosym            = .true.
   occupations      = 'smearing'
   degauss          = 0.02
   smearing         = 'marzari-vanderbilt'
   nspin            = 1
   input_dft        = 'beef-vdw'
   ntyp             = 2
   nat              = 37
   ibrav            = 0
/
&ELECTRONS
   mixing_mode      = 'local-TF'
/
&IONS
/
&CELL
/
&FCP
/
&RISM
/
ATOMIC_SPECIES
Pt 195.084 Pt.pbe-n-kjpaw_psl.1.0.0.UPF
H 1.008 H.pbe-kjpaw_psl.1.0.0.UPF

K_POINTS automatic
5 5 1  0 0 0

CELL_PARAMETERS angstrom
8.46831000000000 0.00000000000000 0.00000000000000
4.23415500000000 7.33377158712180 0.00000000000000
0.00000000000000 0.00000000000000 24.96566199000000

ATOMIC_POSITIONS angstrom
Pt 0.0000000000 0.0000000000 8.5000000000   0 0 0
Pt 2.8284271247 0.0000000000 8.5000000000   0 0 0
Pt 5.6568542495 0.0000000000 8.5000000000   0 0 0
Pt 1.4142135624 2.4494897428 8.5000000000   0 0 0
Pt 4.2426406871 2.4494897428 8.5000000000   0 0 0
Pt 7.0710678119 2.4494897428 8.5000000000   0 0 0
Pt 2.8284271247 4.8989794856 8.5000000000   0 0 0
Pt 5.6568542495 4.8989794856 8.5000000000   0 0 0
Pt 8.4852813742 4.8989794856 8.5000000000   0 0 0
Pt 1.4142135624 0.8164965809 10.8094010768   0 0 0
Pt 4.2426406871 0.8164965809 10.8094010768   0 0 0
Pt 7.0710678119 0.8164965809 10.8094010768   0 0 0
Pt 2.8284271247 3.2659863237 10.8094010768   0 0 0
Pt 5.6568542495 3.2659863237 10.8094010768   0 0 0
Pt 8.4852813742 3.2659863237 10.8094010768   0 0 0
Pt 4.2426406871 5.7154760665 10.8094010768   0 0 0
Pt 7.0710678119 5.7154760665 10.8094010768   0 0 0
Pt 9.8994949366 5.7154760665 10.8094010768   0 0 0
Pt 0.0202316182 1.6391719397 13.1123730273  
Pt 2.8340176402 1.6365285786 13.1139324190  
Pt 5.6615971454 1.6375221946 13.0914974224  
Pt 1.4270623412 4.0772414649 13.1073444453  
Pt 4.2486533073 4.0848009231 13.0914425679  
Pt 7.0741291447 4.0844994974 13.0915757664  
Pt 2.8431751981 6.5309555153 13.1046899906  
Pt 5.6635698407 6.5321304309 13.1124081053  
Pt 8.4784247119 6.5314228009 13.1073806309  
Pt -0.0041709369 -0.0017831258 15.4639536767  
Pt 2.8786807879 -0.0055514748 15.4865527994  
Pt 5.6716036683 0.0156283280 15.4326578758  
Pt 1.4339945673 2.4966206918 15.4865412376  
Pt 4.2742659391 2.4683956239 15.4241208679  
Pt 7.0701267046 2.4636462757 15.4266780773  
Pt 2.8488419574 4.9047686988 15.4325984534  
Pt 5.6680939820 4.8919222614 15.4266316812  
Pt 8.4900919319 4.9022676864 15.4310470517  
H 1.6031572676 0.9260286553 16.3756294835  

