Pt  H 
 1.0000000000000000
     8.4683100000000007    0.0000000000000000    0.0000000000000000
     4.2341550000000012    7.3337715871217997    0.0000000000000000
     0.0000000000000000    0.0000000000000000   24.9656619900000010
 Pt  H  
  36   1
Selective dynamics
Cartesian
  0.0000000000000000  0.0000000000000000  8.5000000000000000   F   F   F
  2.8284271247461903  0.0000000000000000  8.5000000000000000   F   F   F
  5.6568542494923806  0.0000000000000000  8.5000000000000000   F   F   F
  1.4142135623730951  2.4494897427831779  8.5000000000000000   F   F   F
  4.2426406871192857  2.4494897427831779  8.5000000000000000   F   F   F
  7.0710678118654755  2.4494897427831779  8.5000000000000000   F   F   F
  2.8284271247461903  4.8989794855663558  8.5000000000000000   F   F   F
  5.6568542494923806  4.8989794855663558  8.5000000000000000   F   F   F
  8.4852813742385713  4.8989794855663558  8.5000000000000000   F   F   F
  1.4142135623730951  0.8164965809277259 10.8094010767585029   F   F   F
  4.2426406871192848  0.8164965809277259 10.8094010767585029   F   F   F
  7.0710678118654755  0.8164965809277259 10.8094010767585029   F   F   F
  2.8284271247461903  3.2659863237109037 10.8094010767585029   F   F   F
  5.6568542494923806  3.2659863237109037 10.8094010767585029   F   F   F
  8.4852813742385713  3.2659863237109037 10.8094010767585029   F   F   F
  4.2426406871192857  5.7154760664940820 10.8094010767585029   F   F   F
  7.0710678118654755  5.7154760664940820 10.8094010767585029   F   F   F
  9.8994949366116671  5.7154760664940820 10.8094010767585029   F   F   F
  0.0304278945062753  1.6513470834835982 13.1027800917209856   T   T   T
  2.8453725256212796  1.6455544028216591 13.1214670476336277   T   T   T
  5.6685307339371951  1.6476749221380051 13.0927142691679190   T   T   T
  1.4362924476788166  4.0849350530650224 13.1045510219539825   T   T   T
  4.2587955015971044  4.0889274245159264 13.0928790071049441   T   T   T
  7.0827506047942359  4.0920798523511968 13.0889488168962700   T   T   T
  2.8474778508370115  6.5358045874295323 13.0834335919720299   T   T   T
  5.6762423529155583  6.5396051881116346 13.1028790743892678   T   T   T
  8.4866869316749138  6.5391876019442279 13.1046375683663907   T   T   T
  0.0205433143584495  0.0161329847968692 15.4113313596438299   T   T   T
  2.8670972778923978  0.0014264787824400 15.4922655149702226   T   T   T
  5.6908277495502393  0.0224577061871559 15.4167700250885122   T   T   T
  1.4317817697715820  2.4885976458299726 15.4910753337416924   T   T   T
  4.3052096485580496  2.4887323517906648 15.4512205867654107   T   T   T
  7.0938640957918260  2.4690236690480925 15.4190392394652296   T   T   T
  2.8607712779696093  4.9239915603728646 15.4172466527035574   T   T   T
  5.6821390132637477  4.9143769267862591 15.4187970614173846   T   T   T
  8.5072010369270679  4.9151970708350090 15.4217736541571480   T   T   T
  2.6430767569499296  1.5318003707867633 16.3980241049305135   T   T   T
