&CONTROL
   tprnfor          = .true.
   pseudo_dir       = '/users/kbadger1/espresso/pseudo/pslibrary.1.0.0/pbe/PSEUDOPOTENTIALS/'
/
&SYSTEM
   ecutwfc          = 40
   ecutrho          = 410
   nosym            = .true.
   occupations      = 'smearing'
   degauss          = 0.02
   smearing         = 'marzari-vanderbilt'
   nspin            = 1
   input_dft        = 'beef-vdw'
   ntyp             = 3
   nat              = 38
   ibrav            = 0
/
&ELECTRONS
   mixing_mode      = 'local-TF'
/
&IONS
/
&CELL
/
&FCP
/
&RISM
/
ATOMIC_SPECIES
Pt 195.084 Pt.pbe-n-kjpaw_psl.1.0.0.UPF
H 1.008 H.pbe-kjpaw_psl.1.0.0.UPF
C 12.011 C.pbe-n-kjpaw_psl.1.0.0.UPF

K_POINTS automatic
5 5 1  0 0 0

CELL_PARAMETERS angstrom
8.46831000000000 0.00000000000000 0.00000000000000
4.23415500000000 7.33377158712180 0.00000000000000
0.00000000000000 0.00000000000000 24.96566199000000

ATOMIC_POSITIONS angstrom
Pt 0.0000000000 0.0000000000 8.5000000000   0 0 0
Pt 2.8284271247 0.0000000000 8.5000000000   0 0 0
Pt 5.6568542495 0.0000000000 8.5000000000   0 0 0
Pt 1.4142135624 2.4494897428 8.5000000000   0 0 0
Pt 4.2426406871 2.4494897428 8.5000000000   0 0 0
Pt 7.0710678119 2.4494897428 8.5000000000   0 0 0
Pt 2.8284271247 4.8989794856 8.5000000000   0 0 0
Pt 5.6568542495 4.8989794856 8.5000000000   0 0 0
Pt 8.4852813742 4.8989794856 8.5000000000   0 0 0
Pt 1.4142135624 0.8164965809 10.8094010768   0 0 0
Pt 4.2426406871 0.8164965809 10.8094010768   0 0 0
Pt 7.0710678119 0.8164965809 10.8094010768   0 0 0
Pt 2.8284271247 3.2659863237 10.8094010768   0 0 0
Pt 5.6568542495 3.2659863237 10.8094010768   0 0 0
Pt 8.4852813742 3.2659863237 10.8094010768   0 0 0
Pt 4.2426406871 5.7154760665 10.8094010768   0 0 0
Pt 7.0710678119 5.7154760665 10.8094010768   0 0 0
Pt 9.8994949366 5.7154760665 10.8094010768   0 0 0
Pt 0.0376430521 1.6554569238 13.1685890399  
Pt 2.8093705426 1.6549574875 13.1650904673  
Pt 5.6578776151 1.6582977341 13.0895270803  
Pt 1.4234803975 4.0701266448 13.1272709758  
Pt 4.2426673507 4.0894250022 13.0769274720  
Pt 7.0729229955 4.0895932637 13.0766565092  
Pt 2.8505822881 6.5575515721 13.1097210616  
Pt 5.6575132058 6.5494705161 13.1207802926  
Pt 8.4657706939 6.5570195114 13.1069312248  
Pt -0.0948006144 -0.0200836781 15.5498279557  
Pt 2.9382381732 -0.0181103490 15.5476756056  
Pt 5.6561321992 0.0487212351 15.4220050459  
Pt 1.4223799331 2.6935926596 15.8410062524  
Pt 4.2609973876 2.4973470580 15.4198292066  
Pt 7.0533443857 2.4977003402 15.4208878148  
Pt 2.8493916525 4.9515325769 15.3878280347  
Pt 5.6574789276 4.8901728862 15.3924989912  
Pt 8.4645482689 4.9529769230 15.3878838694  
H 1.4251782448 3.2442563300 17.3041093716  
C 1.4213248739 0.8200130311 16.2961139962  

