&CONTROL
   tprnfor          = .true.
   pseudo_dir       = '/users/kbadger1/espresso/pseudo/pslibrary.1.0.0/pbe/PSEUDOPOTENTIALS/'
/
&SYSTEM
   ecutwfc          = 40
   ecutrho          = 410
   nosym            = .true.
   occupations      = 'smearing'
   degauss          = 0.02
   smearing         = 'marzari-vanderbilt'
   nspin            = 1
   input_dft        = 'beef-vdw'
   ntyp             = 3
   nat              = 38
   ibrav            = 0
/
&ELECTRONS
   mixing_mode      = 'local-TF'
/
&IONS
/
&CELL
/
&FCP
/
&RISM
/
ATOMIC_SPECIES
Pt 195.084 Pt.pbe-n-kjpaw_psl.1.0.0.UPF
C 12.011 C.pbe-n-kjpaw_psl.1.0.0.UPF
H 1.008 H.pbe-kjpaw_psl.1.0.0.UPF

K_POINTS automatic
5 5 1  0 0 0

CELL_PARAMETERS angstrom
8.48528137423857 0.00000000000000 0.00000000000000
4.24264068711929 7.34846922834953 0.00000000000000
0.00000000000000 0.00000000000000 23.92820323027551

ATOMIC_POSITIONS angstrom
Pt 0.0000000000 0.0000000000 8.5000000000   0 0 0
Pt 2.8284271247 0.0000000000 8.5000000000   0 0 0
Pt 5.6568542495 0.0000000000 8.5000000000   0 0 0
Pt 1.4142135624 2.4494897428 8.5000000000   0 0 0
Pt 4.2426406871 2.4494897428 8.5000000000   0 0 0
Pt 7.0710678119 2.4494897428 8.5000000000   0 0 0
Pt 2.8284271247 4.8989794856 8.5000000000   0 0 0
Pt 5.6568542495 4.8989794856 8.5000000000   0 0 0
Pt 8.4852813742 4.8989794856 8.5000000000   0 0 0
Pt 1.4142135624 0.8164965809 10.8094010768   0 0 0
Pt 4.2426406871 0.8164965809 10.8094010768   0 0 0
Pt 7.0710678119 0.8164965809 10.8094010768   0 0 0
Pt 2.8284271247 3.2659863237 10.8094010768   0 0 0
Pt 5.6568542495 3.2659863237 10.8094010768   0 0 0
Pt 8.4852813742 3.2659863237 10.8094010768   0 0 0
Pt 4.2426406871 5.7154760665 10.8094010768   0 0 0
Pt 7.0710678119 5.7154760665 10.8094010768   0 0 0
Pt 9.8994949366 5.7154760665 10.8094010768   0 0 0
Pt 0.0260504882 1.6512541823 13.1593393333  
Pt 2.8028652365 1.6515474422 13.1593740734  
Pt 5.6571114151 1.6548239847 13.0853860233  
Pt 1.4143794415 4.0698745978 13.1213155937  
Pt 4.2395282935 4.0908567719 13.0730375076  
Pt 7.0746134031 4.0909142213 13.0733300071  
Pt 2.8434078212 6.5626165177 13.0992821664  
Pt 5.6569819513 6.5566367888 13.1144226728  
Pt 8.4704534650 6.5627562631 13.0994728628  
Pt -0.1074466164 -0.0270621245 15.5359269606  
Pt 2.9360842706 -0.0262906091 15.5361229589  
Pt 5.6571594364 0.0401339098 15.4090318872  
Pt 1.4141639478 2.6937812594 15.8195572927  
Pt 4.2585451080 2.4951015148 15.4094061378  
Pt 7.0557419564 2.4950592360 15.4095377403  
Pt 2.8440119183 4.9561480209 15.3770911111  
Pt 5.6572275694 4.8925720404 15.3829344261  
Pt 8.4700550912 4.9567162974 15.3774066420  
C 1.4139814231 0.8184236018 16.2652148810  
H 1.4128233210 3.2303482866 17.2883462931  

