Pt H 
 1.0000000000000000
     8.4683100000000007    0.0000000000000000    0.0000000000000000
     4.2341550000000012    7.3337715871217997    0.0000000000000000
     0.0000000000000000    0.0000000000000000   24.9656619900000010
 Pt  H  
  36   1
Selective dynamics
Cartesian
  0.0000000000000000  0.0000000000000000  8.5000000000000000   F   F   F
  2.8284271247461903  0.0000000000000000  8.5000000000000000   F   F   F
  5.6568542494923806  0.0000000000000000  8.5000000000000000   F   F   F
  1.4142135623730951  2.4494897427831779  8.5000000000000000   F   F   F
  4.2426406871192857  2.4494897427831779  8.5000000000000000   F   F   F
  7.0710678118654755  2.4494897427831779  8.5000000000000000   F   F   F
  2.8284271247461903  4.8989794855663558  8.5000000000000000   F   F   F
  5.6568542494923806  4.8989794855663558  8.5000000000000000   F   F   F
  8.4852813742385713  4.8989794855663558  8.5000000000000000   F   F   F
  1.4142135623730951  0.8164965809277259 10.8094010767585029   F   F   F
  4.2426406871192848  0.8164965809277259 10.8094010767585029   F   F   F
  7.0710678118654755  0.8164965809277259 10.8094010767585029   F   F   F
  2.8284271247461903  3.2659863237109037 10.8094010767585029   F   F   F
  5.6568542494923806  3.2659863237109037 10.8094010767585029   F   F   F
  8.4852813742385713  3.2659863237109037 10.8094010767585029   F   F   F
  4.2426406871192857  5.7154760664940820 10.8094010767585029   F   F   F
  7.0710678118654755  5.7154760664940820 10.8094010767585029   F   F   F
  9.8994949366116671  5.7154760664940820 10.8094010767585029   F   F   F
  0.0130213707539040  1.6382514034765912 13.1004728733763720   T   T   T
  2.8393392529064201  1.6376275725689977 13.0987356938417285   T   T   T
  5.6598927158084935  1.6367864183281682 13.0862614780574003   T   T   T
  1.4268667901588832  4.0668978437735275 13.1226401631974774   T   T   T
  4.2496964026224786  4.0842532929273441 13.0894797973864971   T   T   T
  7.0703747245757453  4.0846597592964775 13.0881158367097150   T   T   T
  2.8407839443870961  6.5286311927930321 13.0966439679350248   T   T   T
  5.6608781810766935  6.5321893304376895 13.1021166431279372   T   T   T
  8.4825899285037636  6.5270263048046822 13.0934660018918034   T   T   T
 -0.0006717321743427 -0.0037003569457924 15.4304100263694171   T   T   T
  2.8566082129311909 -0.0029532049344570 15.4292605348889893   T   T   T
  5.6617540117406353  0.0154291764530891 15.4248968845385530   T   T   T
  1.4276486947920664  2.4693615011687808 15.4763359051008216   T   T   T
  4.2644667602013486  2.4589845170978579 15.4154902944182517   T   T   T
  7.0590755088983803  2.4586814885474428 15.4138019058998559   T   T   T
  2.8462380856173981  4.9132370901762643 15.4216451431381394   T   T   T
  5.6619752740572995  4.8988218134899792 15.4177715254519594   T   T   T
  8.4783876849953153  4.9141025285371986 15.4196637130157992   T   T   T
  1.4272247746550084  1.5971391596886431 16.8058373415017996   T   T   T
