&CONTROL
   tprnfor          = .true.
   pseudo_dir       = '/users/kbadger1/espresso/pseudo/pslibrary.1.0.0/pbe/PSEUDOPOTENTIALS/'
/
&SYSTEM
   ecutwfc          = 40
   ecutrho          = 410
   nosym            = .true.
   occupations      = 'smearing'
   degauss          = 0.02
   smearing         = 'marzari-vanderbilt'
   nspin            = 1
   input_dft        = 'beef-vdw'
   ntyp             = 2
   nat              = 37
   ibrav            = 0
/
&ELECTRONS
   conv_thr         = 1e-08
   mixing_mode      = 'local-TF'
/
&IONS
/
&CELL
/
&FCP
/
&RISM
/
ATOMIC_SPECIES
Pt 195.084 Pt.pbe-n-kjpaw_psl.1.0.0.UPF
H 1.008 H.pbe-kjpaw_psl.1.0.0.UPF

K_POINTS automatic
5 5 1  0 0 0

CELL_PARAMETERS angstrom
8.48528137423857 0.00000000000000 0.00000000000000
4.24264068711929 7.34846922834953 0.00000000000000
0.00000000000000 0.00000000000000 23.92820323027551

ATOMIC_POSITIONS angstrom
Pt 0.0000000000 0.0000000000 8.5000000000   0 0 0
Pt 2.8284271247 0.0000000000 8.5000000000   0 0 0
Pt 5.6568542495 0.0000000000 8.5000000000   0 0 0
Pt 1.4142135624 2.4494897428 8.5000000000   0 0 0
Pt 4.2426406871 2.4494897428 8.5000000000   0 0 0
Pt 7.0710678119 2.4494897428 8.5000000000   0 0 0
Pt 2.8284271247 4.8989794856 8.5000000000   0 0 0
Pt 5.6568542495 4.8989794856 8.5000000000   0 0 0
Pt 8.4852813742 4.8989794856 8.5000000000   0 0 0
Pt 1.4142135624 0.8164965809 10.8094010768   0 0 0
Pt 4.2426406871 0.8164965809 10.8094010768   0 0 0
Pt 7.0710678119 0.8164965809 10.8094010768   0 0 0
Pt 2.8284271247 3.2659863237 10.8094010768   0 0 0
Pt 5.6568542495 3.2659863237 10.8094010768   0 0 0
Pt 8.4852813742 3.2659863237 10.8094010768   0 0 0
Pt 4.2426406871 5.7154760665 10.8094010768   0 0 0
Pt 7.0710678119 5.7154760665 10.8094010768   0 0 0
Pt 9.8994949366 5.7154760665 10.8094010768   0 0 0
Pt 0.0028654703 1.6169140134 13.0999261275  
Pt 2.8261583320 1.6171932459 13.0995820441  
Pt 5.6570929979 1.6180349993 13.0854979184  
Pt 1.4148345132 4.0412750211 13.1224242378  
Pt 4.2424892439 4.0688233418 13.0876174273  
Pt 7.0719834049 4.0689055480 13.0875266638  
Pt 2.8298837395 6.5142933804 13.0914066613  
Pt 5.6570382848 6.5211034922 13.0955562840  
Pt 8.4853776444 6.5139082535 13.0903494633  
Pt -0.0196050225 -0.0425638577 15.4333179722  
Pt 2.8505967059 -0.0431043639 15.4293998574  
Pt 5.6576584039 -0.0269327952 15.4179723755  
Pt 1.4141603858 2.4291105847 15.5027428524  
Pt 4.2530855450 2.4247764077 15.4107540088  
Pt 7.0605108894 2.4253015718 15.4103764808  
Pt 2.8315941240 4.8744955144 15.4177859675  
Pt 5.6574470967 4.8679405733 15.4130542586  
Pt 8.4836530789 4.8744093835 15.4176391990  
H 1.3898767267 1.3881802231 16.7236255063  

