&CONTROL
   tprnfor          = .true.
   pseudo_dir       = '/users/kbadger1/espresso/pseudo/pslibrary.1.0.0/pbe/PSEUDOPOTENTIALS/'
/
&SYSTEM
   ecutwfc          = 40
   ecutrho          = 410
   nosym            = .true.
   occupations      = 'smearing'
   degauss          = 0.02
   smearing         = 'marzari-vanderbilt'
   nspin            = 1
   input_dft        = 'beef-vdw'
   ntyp             = 2
   nat              = 37
   ibrav            = 0
/
&ELECTRONS
   mixing_mode      = 'local-TF'
/
&IONS
/
&CELL
/
&FCP
/
&RISM
/
ATOMIC_SPECIES
Pt 195.084 Pt.pbe-n-kjpaw_psl.1.0.0.UPF
H 1.008 H.pbe-kjpaw_psl.1.0.0.UPF

K_POINTS automatic
5 5 1  0 0 0

CELL_PARAMETERS angstrom
8.46831000000000 0.00000000000000 0.00000000000000
4.23415500000000 7.33377158712180 0.00000000000000
0.00000000000000 0.00000000000000 24.96566199000000

ATOMIC_POSITIONS angstrom
Pt 0.0000000000 0.0000000000 8.5000000000   0 0 0
Pt 2.8284271247 0.0000000000 8.5000000000   0 0 0
Pt 5.6568542495 0.0000000000 8.5000000000   0 0 0
Pt 1.4142135624 2.4494897428 8.5000000000   0 0 0
Pt 4.2426406871 2.4494897428 8.5000000000   0 0 0
Pt 7.0710678119 2.4494897428 8.5000000000   0 0 0
Pt 2.8284271247 4.8989794856 8.5000000000   0 0 0
Pt 5.6568542495 4.8989794856 8.5000000000   0 0 0
Pt 8.4852813742 4.8989794856 8.5000000000   0 0 0
Pt 1.4142135624 0.8164965809 10.8094010768   0 0 0
Pt 4.2426406871 0.8164965809 10.8094010768   0 0 0
Pt 7.0710678119 0.8164965809 10.8094010768   0 0 0
Pt 2.8284271247 3.2659863237 10.8094010768   0 0 0
Pt 5.6568542495 3.2659863237 10.8094010768   0 0 0
Pt 8.4852813742 3.2659863237 10.8094010768   0 0 0
Pt 4.2426406871 5.7154760665 10.8094010768   0 0 0
Pt 7.0710678119 5.7154760665 10.8094010768   0 0 0
Pt 9.8994949366 5.7154760665 10.8094010768   0 0 0
Pt 0.0153869062 1.6225064551 13.1095215770  
Pt 2.8318724350 1.6213730511 13.1067323644  
Pt 5.6582101234 1.6227062247 13.0919593390  
Pt 1.4244098692 4.0437730787 13.1317989127  
Pt 4.2461598680 4.0692225681 13.0933399574  
Pt 7.0704254843 4.0695102090 13.0925199451  
Pt 2.8375015050 6.5101455438 13.1032744356  
Pt 5.6586841682 6.5153075639 13.1049278094  
Pt 8.4817420819 6.5091473084 13.0997056132  
Pt -0.0065265741 -0.0322584504 15.4466677893  
Pt 2.8582287450 -0.0321529807 15.4444439409  
Pt 5.6593933385 -0.0162758537 15.4322410349  
Pt 1.4258363229 2.4324701918 15.5212894881  
Pt 4.2572956164 2.4309644928 15.4225136081  
Pt 7.0619204186 2.4312535712 15.4228391461  
Pt 2.8402056913 4.8738104598 15.4327212818  
Pt 5.6598079221 4.8666629255 15.4255677892  
Pt 8.4790969489 4.8740975443 15.4316723711  
H 1.4232371546 1.3920091827 16.7429932822  

