&CONTROL
   tprnfor          = .true.
   pseudo_dir       = '/users/kbadger1/espresso/pseudo/pslibrary.1.0.0/pbe/PSEUDOPOTENTIALS/'
/
&SYSTEM
   ecutwfc          = 40
   ecutrho          = 410
   nosym            = .true.
   occupations      = 'smearing'
   degauss          = 0.001
   smearing         = 'marzari-vanderbilt'
   nspin            = 1
   input_dft        = 'beef-vdw'
   ntyp             = 4
   nat              = 41
   ibrav            = 0
/
&ELECTRONS
   mixing_mode      = 'local-TF'
/
&IONS
/
&CELL
/
&FCP
/
&RISM
/
ATOMIC_SPECIES
Pt 195.084 Pt.pbe-n-kjpaw_psl.1.0.0.UPF
O 15.999 O.pbe-nl-kjpaw_psl.1.0.0.UPF
H 1.008 H.pbe-kjpaw_psl.1.0.0.UPF
C 12.011 C.pbe-n-kjpaw_psl.1.0.0.UPF

K_POINTS automatic
5 5 1  0 0 0

CELL_PARAMETERS angstrom
8.48528137423857 0.00000000000000 0.00000000000000
4.24264068711929 7.34846922834953 0.00000000000000
0.00000000000000 0.00000000000000 23.92820323027551

ATOMIC_POSITIONS angstrom
Pt 0.0000000000 0.0000000000 8.5000000000   0 0 0
Pt 2.8284271247 0.0000000000 8.5000000000   0 0 0
Pt 5.6568542495 0.0000000000 8.5000000000   0 0 0
Pt 1.4142135624 2.4494897428 8.5000000000   0 0 0
Pt 4.2426406871 2.4494897428 8.5000000000   0 0 0
Pt 7.0710678119 2.4494897428 8.5000000000   0 0 0
Pt 2.8284271247 4.8989794856 8.5000000000   0 0 0
Pt 5.6568542495 4.8989794856 8.5000000000   0 0 0
Pt 8.4852813742 4.8989794856 8.5000000000   0 0 0
Pt 1.4142135624 0.8164965809 10.8094010768   0 0 0
Pt 4.2426406871 0.8164965809 10.8094010768   0 0 0
Pt 7.0710678119 0.8164965809 10.8094010768   0 0 0
Pt 2.8284271247 3.2659863237 10.8094010768   0 0 0
Pt 5.6568542495 3.2659863237 10.8094010768   0 0 0
Pt 8.4852813742 3.2659863237 10.8094010768   0 0 0
Pt 4.2426406871 5.7154760665 10.8094010768   0 0 0
Pt 7.0710678119 5.7154760665 10.8094010768   0 0 0
Pt 9.8994949366 5.7154760665 10.8094010768   0 0 0
Pt 0.0075438697 1.5440032315 13.1370820199  
Pt 2.8570262634 1.6115038512 13.1110396361  
Pt 5.6473878208 1.6120305347 13.1247475397  
Pt 1.4565731630 4.0789544236 13.1498665281  
Pt 4.2301008803 4.0534061714 13.1559398912  
Pt 7.1212884975 4.0299885946 13.0640688792  
Pt 2.8412307941 6.4579129476 13.1530844422  
Pt 5.6652770140 6.5004999235 13.0794534572  
Pt 8.4990347872 6.4949209636 13.0816819114  
Pt 0.0132802331 0.0234964080 15.4473591070  
Pt 2.8610472775 -0.0593962751 15.3924505840  
Pt 5.6642932390 -0.0675555207 15.3934927485  
Pt 1.4031076640 2.4199855181 15.3725806282  
Pt 4.3060102052 2.3634781683 15.5654212969  
Pt 7.0822463460 2.4168891726 15.4436295299  
Pt 2.7682496694 4.6481909555 16.0361663717  
Pt 5.7641364490 4.8233723734 15.3070517330  
Pt 8.5079453614 4.8544815991 15.4556276506  
O 3.9693589969 6.1478706134 17.1924050555  
H 3.3780481351 6.5835409767 17.8271304190  
H 4.3829028799 3.6824004702 17.8770465611  
H 2.9223478029 2.5983584641 17.8182953999  
C 3.6134563812 3.2246288190 17.2568623425  

