&CONTROL
   tprnfor          = .true.
   pseudo_dir       = '/users/kbadger1/espresso/pseudo/pslibrary.1.0.0/pbe/PSEUDOPOTENTIALS/'
/
&SYSTEM
   ecutwfc          = 40
   ecutrho          = 410
   nosym            = .true.
   occupations      = 'smearing'
   degauss          = 0.02
   smearing         = 'marzari-vanderbilt'
   nspin            = 1
   input_dft        = 'beef-vdw'
   ntyp             = 2
   nat              = 37
   ibrav            = 0
/
&ELECTRONS
   mixing_mode      = 'local-TF'
/
&IONS
/
&CELL
/
&FCP
/
&RISM
/
ATOMIC_SPECIES
Pt 195.084 Pt.pbe-n-kjpaw_psl.1.0.0.UPF
H 1.008 H.pbe-kjpaw_psl.1.0.0.UPF

K_POINTS automatic
5 5 1  0 0 0

CELL_PARAMETERS angstrom
8.46831000000000 0.00000000000000 0.00000000000000
4.23415500000000 7.33377158712180 0.00000000000000
0.00000000000000 0.00000000000000 24.96566199000000

ATOMIC_POSITIONS angstrom
Pt 0.0000000000 0.0000000000 8.5000000000   0 0 0
Pt 2.8284271247 0.0000000000 8.5000000000   0 0 0
Pt 5.6568542495 0.0000000000 8.5000000000   0 0 0
Pt 1.4142135624 2.4494897428 8.5000000000   0 0 0
Pt 4.2426406871 2.4494897428 8.5000000000   0 0 0
Pt 7.0710678119 2.4494897428 8.5000000000   0 0 0
Pt 2.8284271247 4.8989794856 8.5000000000   0 0 0
Pt 5.6568542495 4.8989794856 8.5000000000   0 0 0
Pt 8.4852813742 4.8989794856 8.5000000000   0 0 0
Pt 1.4142135624 0.8164965809 10.8094010768   0 0 0
Pt 4.2426406871 0.8164965809 10.8094010768   0 0 0
Pt 7.0710678119 0.8164965809 10.8094010768   0 0 0
Pt 2.8284271247 3.2659863237 10.8094010768   0 0 0
Pt 5.6568542495 3.2659863237 10.8094010768   0 0 0
Pt 8.4852813742 3.2659863237 10.8094010768   0 0 0
Pt 4.2426406871 5.7154760665 10.8094010768   0 0 0
Pt 7.0710678119 5.7154760665 10.8094010768   0 0 0
Pt 9.8994949366 5.7154760665 10.8094010768   0 0 0
Pt 0.0475351897 1.6332651807 13.1213253742  
Pt 2.8482286709 1.6280668011 13.1071622342  
Pt 5.6822694065 1.6262738393 13.0893730643  
Pt 1.4447083135 4.0561543733 13.1165168325  
Pt 4.2659950809 4.0691653682 13.0934631550  
Pt 7.0914007665 4.0685539953 13.0935907608  
Pt 2.8584150028 6.5146869782 13.0936854661  
Pt 5.6786438736 6.5139574203 13.0974064444  
Pt 8.5025164004 6.5100969545 13.0922208805  
Pt 0.0562496428 -0.0226998404 15.4252388206  
Pt 2.8878305022 -0.0260297158 15.4198171389  
Pt 5.7055971551 -0.0197222267 15.4237440296  
Pt 1.4816812427 2.4220624911 15.5533848181  
Pt 4.3036443041 2.4229694632 15.4173573839  
Pt 7.1151537309 2.4223797595 15.4249486950  
Pt 2.8841797494 4.8758042492 15.4217444566  
Pt 5.7065538515 4.8682553994 15.4209301923  
Pt 8.5287333814 4.8719881783 15.4241566820  
H 1.6483814286 2.3800472495 17.0988232780  

