&CONTROL
   tprnfor          = .true.
   pseudo_dir       = '/users/kbadger1/espresso/pseudo/pslibrary.1.0.0/pbe/PSEUDOPOTENTIALS/'
/
&SYSTEM
   ecutwfc          = 40
   ecutrho          = 410
   nosym            = .true.
   occupations      = 'smearing'
   degauss          = 0.02
   smearing         = 'marzari-vanderbilt'
   nspin            = 1
   input_dft        = 'beef-vdw'
   ntyp             = 2
   nat              = 37
   ibrav            = 0
/
&ELECTRONS
   conv_thr         = 1e-08
   mixing_mode      = 'local-TF'
/
&IONS
/
&CELL
/
&FCP
/
&RISM
/
ATOMIC_SPECIES
Pt 195.084 Pt.pbe-n-kjpaw_psl.1.0.0.UPF
H 1.008 H.pbe-kjpaw_psl.1.0.0.UPF

K_POINTS automatic
5 5 1  0 0 0

CELL_PARAMETERS angstrom
8.48528137423857 0.00000000000000 0.00000000000000
4.24264068711929 7.34846922834953 0.00000000000000
0.00000000000000 0.00000000000000 23.92820323027551

ATOMIC_POSITIONS angstrom
Pt 0.0000000000 0.0000000000 8.5000000000   0 0 0
Pt 2.8284271247 0.0000000000 8.5000000000   0 0 0
Pt 5.6568542495 0.0000000000 8.5000000000   0 0 0
Pt 1.4142135624 2.4494897428 8.5000000000   0 0 0
Pt 4.2426406871 2.4494897428 8.5000000000   0 0 0
Pt 7.0710678119 2.4494897428 8.5000000000   0 0 0
Pt 2.8284271247 4.8989794856 8.5000000000   0 0 0
Pt 5.6568542495 4.8989794856 8.5000000000   0 0 0
Pt 8.4852813742 4.8989794856 8.5000000000   0 0 0
Pt 1.4142135624 0.8164965809 10.8094010768   0 0 0
Pt 4.2426406871 0.8164965809 10.8094010768   0 0 0
Pt 7.0710678119 0.8164965809 10.8094010768   0 0 0
Pt 2.8284271247 3.2659863237 10.8094010768   0 0 0
Pt 5.6568542495 3.2659863237 10.8094010768   0 0 0
Pt 8.4852813742 3.2659863237 10.8094010768   0 0 0
Pt 4.2426406871 5.7154760665 10.8094010768   0 0 0
Pt 7.0710678119 5.7154760665 10.8094010768   0 0 0
Pt 9.8994949366 5.7154760665 10.8094010768   0 0 0
Pt 0.0462004764 1.6218317905 13.1205623180  
Pt 2.8537996164 1.6175610698 13.1120344583  
Pt 5.6936227899 1.6172220555 13.0912752935  
Pt 1.4462833893 4.0466931020 13.1207767410  
Pt 4.2713949120 4.0633027221 13.0953431004  
Pt 7.1034496128 4.0630247326 13.0986699362  
Pt 2.8600561882 6.5128671909 13.0920294254  
Pt 5.6871896148 6.5155313380 13.0953493634  
Pt 8.5167059350 6.5068319288 13.0912636324  
Pt 0.0636898155 -0.0449048600 15.4248164620  
Pt 2.9040436512 -0.0500317473 15.4196017641  
Pt 5.7234105775 -0.0400680097 15.4203066558  
Pt 1.4930422732 2.4021342925 15.5634732734  
Pt 4.3221928714 2.4066093537 15.4196571072  
Pt 7.1408057961 2.4061146557 15.4281410747  
Pt 2.8976971657 4.8636129088 15.4249350224  
Pt 5.7230768035 4.8590729247 15.4192736087  
Pt 8.5562526304 4.8577871151 15.4281989833  
H 1.6304149988 2.3189056877 17.1128471916  

