&CONTROL
   tprnfor          = .true.
   pseudo_dir       = '/users/kbadger1/espresso/pseudo/pslibrary.1.0.0/pbe/PSEUDOPOTENTIALS/'
/
&SYSTEM
   ecutwfc          = 40
   ecutrho          = 410
   nosym            = .true.
   occupations      = 'smearing'
   degauss          = 0.001
   smearing         = 'marzari-vanderbilt'
   nspin            = 1
   input_dft        = 'beef-vdw'
   ntyp             = 3
   nat              = 39
   ibrav            = 0
/
&ELECTRONS
   mixing_mode      = 'local-TF'
/
&IONS
/
&CELL
/
&FCP
/
&RISM
/
ATOMIC_SPECIES
Pt 195.084 Pt.pbe-n-kjpaw_psl.1.0.0.UPF
O 15.999 O.pbe-nl-kjpaw_psl.1.0.0.UPF
H 1.008 H.pbe-kjpaw_psl.1.0.0.UPF

K_POINTS automatic
5 5 1  0 0 0

CELL_PARAMETERS angstrom
8.48528137423857 0.00000000000000 0.00000000000000
4.24264068711929 7.34846922834953 0.00000000000000
0.00000000000000 0.00000000000000 23.92820323027551

ATOMIC_POSITIONS angstrom
Pt 0.0000000000 0.0000000000 8.5000000000   0 0 0
Pt 2.8284271247 0.0000000000 8.5000000000   0 0 0
Pt 5.6568542495 0.0000000000 8.5000000000   0 0 0
Pt 1.4142135624 2.4494897428 8.5000000000   0 0 0
Pt 4.2426406871 2.4494897428 8.5000000000   0 0 0
Pt 7.0710678119 2.4494897428 8.5000000000   0 0 0
Pt 2.8284271247 4.8989794856 8.5000000000   0 0 0
Pt 5.6568542495 4.8989794856 8.5000000000   0 0 0
Pt 8.4852813742 4.8989794856 8.5000000000   0 0 0
Pt 1.4142135624 0.8164965809 10.8094010768   0 0 0
Pt 4.2426406871 0.8164965809 10.8094010768   0 0 0
Pt 7.0710678119 0.8164965809 10.8094010768   0 0 0
Pt 2.8284271247 3.2659863237 10.8094010768   0 0 0
Pt 5.6568542495 3.2659863237 10.8094010768   0 0 0
Pt 8.4852813742 3.2659863237 10.8094010768   0 0 0
Pt 4.2426406871 5.7154760665 10.8094010768   0 0 0
Pt 7.0710678119 5.7154760665 10.8094010768   0 0 0
Pt 9.8994949366 5.7154760665 10.8094010768   0 0 0
Pt -0.0643556552 1.6852329953 13.0884163691  
Pt 2.7613539890 1.6967020413 13.1162142128  
Pt 5.5901842239 1.6818206381 13.1180988474  
Pt 1.3415749843 4.1468936923 13.1103013135  
Pt 4.1599197211 4.1086674690 13.1609724227  
Pt 7.0023204013 4.1448972604 13.0964923561  
Pt 2.7555185553 6.5876295213 13.1111451714  
Pt 5.5767020962 6.5811074150 13.0823535634  
Pt 8.4219747498 6.5974508085 13.1143607446  
Pt -0.1453036072 0.1228565399 15.4393097755  
Pt 2.6636509400 0.0926516403 15.3976147083  
Pt 5.5257240061 0.1047813722 15.5170809064  
Pt 1.2563814270 2.5747280800 15.4279563738  
Pt 4.0945456524 2.6255358320 15.4888632780  
Pt 6.9569894356 2.5771259459 15.4081513964  
Pt 2.6706210341 5.0528579413 15.4681140321  
Pt 5.5244535922 5.0383837875 15.4392304179  
Pt 8.3446759892 5.0230262984 15.4488969575  
O 4.3305342404 1.9510310115 17.5385762826  
H 4.9546945660 2.6003954331 17.9215780792  
H 4.9696389132 0.9676081861 17.0434008895  

