&CONTROL
   tprnfor          = .true.
   pseudo_dir       = '/users/kbadger1/espresso/pseudo/pslibrary.1.0.0/pbe/PSEUDOPOTENTIALS/'
/
&SYSTEM
   ecutwfc          = 40
   ecutrho          = 410
   nosym            = .true.
   occupations      = 'smearing'
   degauss          = 0.001
   smearing         = 'marzari-vanderbilt'
   nspin            = 1
   input_dft        = 'beef-vdw'
   ntyp             = 3
   nat              = 39
   ibrav            = 0
/
&ELECTRONS
   mixing_mode      = 'local-TF'
/
&IONS
/
&CELL
/
&FCP
/
&RISM
/
ATOMIC_SPECIES
Pt 195.084 Pt.pbe-n-kjpaw_psl.1.0.0.UPF
C 12.011 C.pbe-n-kjpaw_psl.1.0.0.UPF
H 1.008 H.pbe-kjpaw_psl.1.0.0.UPF

K_POINTS automatic
5 5 1  0 0 0

CELL_PARAMETERS angstrom
8.48528137423857 0.00000000000000 0.00000000000000
4.24264068711929 7.34846922834953 0.00000000000000
0.00000000000000 0.00000000000000 23.92820323027551

ATOMIC_POSITIONS angstrom
Pt 0.0000000000 0.0000000000 8.5000000000   0 0 0
Pt 2.8284271247 0.0000000000 8.5000000000   0 0 0
Pt 5.6568542495 0.0000000000 8.5000000000   0 0 0
Pt 1.4142135624 2.4494897428 8.5000000000   0 0 0
Pt 4.2426406871 2.4494897428 8.5000000000   0 0 0
Pt 7.0710678119 2.4494897428 8.5000000000   0 0 0
Pt 2.8284271247 4.8989794856 8.5000000000   0 0 0
Pt 5.6568542495 4.8989794856 8.5000000000   0 0 0
Pt 8.4852813742 4.8989794856 8.5000000000   0 0 0
Pt 1.4142135624 0.8164965809 10.8094010768   0 0 0
Pt 4.2426406871 0.8164965809 10.8094010768   0 0 0
Pt 7.0710678119 0.8164965809 10.8094010768   0 0 0
Pt 2.8284271247 3.2659863237 10.8094010768   0 0 0
Pt 5.6568542495 3.2659863237 10.8094010768   0 0 0
Pt 8.4852813742 3.2659863237 10.8094010768   0 0 0
Pt 4.2426406871 5.7154760665 10.8094010768   0 0 0
Pt 7.0710678119 5.7154760665 10.8094010768   0 0 0
Pt 9.8994949366 5.7154760665 10.8094010768   0 0 0
Pt 0.0326509909 1.6143579799 13.1702222023  
Pt 2.7950556373 1.6143419192 13.1700069657  
Pt 5.6564938351 1.6380327139 13.0499454659  
Pt 1.4138065417 4.0473847973 13.1536644313  
Pt 4.2158106233 4.0810112834 13.1141700989  
Pt 7.0971444085 4.0810648665 13.1141325701  
Pt 2.8413067390 6.5176070808 13.1292259790  
Pt 5.6565129195 6.5313028995 13.1246906563  
Pt 8.4717551456 6.5176048102 13.1291165505  
Pt -0.1281417596 -0.1191634976 15.5442322343  
Pt 2.9553294071 -0.1188413158 15.5439467834  
Pt 5.6562571891 0.0254382075 15.3765568052  
Pt 1.4130564827 2.4164085279 15.8632763714  
Pt 4.2792967400 2.4146773816 15.3958808815  
Pt 7.0328839415 2.4146804615 15.3958676157  
Pt 2.8498126475 4.8480107900 15.5766411603  
Pt 5.6560996128 4.8201958466 15.3849644876  
Pt 8.4621429112 4.8481741449 15.5765066253  
C 1.4136272995 0.5115126848 16.4108290891  
H 1.4126154022 2.9923441918 17.4698137511  
C 1.4132791785 4.3286284584 16.7883544169  

