&CONTROL
   tprnfor          = .true.
   pseudo_dir       = '/users/kbadger1/espresso/pseudo/pslibrary.1.0.0/pbe/PSEUDOPOTENTIALS/'
/
&SYSTEM
   ecutwfc          = 40
   ecutrho          = 410
   nosym            = .true.
   occupations      = 'smearing'
   degauss          = 0.001
   smearing         = 'marzari-vanderbilt'
   nspin            = 1
   input_dft        = 'beef-vdw'
   ntyp             = 2
   nat              = 37
   ibrav            = 0
/
&ELECTRONS
   mixing_mode      = 'local-TF'
/
&IONS
/
&CELL
/
&FCP
/
&RISM
/
ATOMIC_SPECIES
Pt 195.084 Pt.pbe-n-kjpaw_psl.1.0.0.UPF
H 1.008 H.pbe-kjpaw_psl.1.0.0.UPF

K_POINTS automatic
5 5 1  0 0 0

CELL_PARAMETERS angstrom
8.48528137423857 0.00000000000000 0.00000000000000
4.24264068711929 7.34846922834953 0.00000000000000
0.00000000000000 0.00000000000000 23.92820323027551

ATOMIC_POSITIONS angstrom
Pt 0.0000000000 0.0000000000 8.5000000000   0 0 0
Pt 2.8284271247 0.0000000000 8.5000000000   0 0 0
Pt 5.6568542495 0.0000000000 8.5000000000   0 0 0
Pt 1.4142135624 2.4494897428 8.5000000000   0 0 0
Pt 4.2426406871 2.4494897428 8.5000000000   0 0 0
Pt 7.0710678119 2.4494897428 8.5000000000   0 0 0
Pt 2.8284271247 4.8989794856 8.5000000000   0 0 0
Pt 5.6568542495 4.8989794856 8.5000000000   0 0 0
Pt 8.4852813742 4.8989794856 8.5000000000   0 0 0
Pt 1.4142135624 0.8164965809 10.8094010768   0 0 0
Pt 4.2426406871 0.8164965809 10.8094010768   0 0 0
Pt 7.0710678119 0.8164965809 10.8094010768   0 0 0
Pt 2.8284271247 3.2659863237 10.8094010768   0 0 0
Pt 5.6568542495 3.2659863237 10.8094010768   0 0 0
Pt 8.4852813742 3.2659863237 10.8094010768   0 0 0
Pt 4.2426406871 5.7154760665 10.8094010768   0 0 0
Pt 7.0710678119 5.7154760665 10.8094010768   0 0 0
Pt 9.8994949366 5.7154760665 10.8094010768   0 0 0
Pt 0.0041313154 1.6342043518 13.1103121269  
Pt 2.8273955862 1.6315412615 13.1331570728  
Pt 5.6503063323 1.6342079769 13.1101771857  
Pt 1.4136395439 4.0752500889 13.1104101669  
Pt 4.2411203378 4.0750874780 13.1102590772  
Pt 7.0699178294 4.0811397751 13.0992627752  
Pt 2.8272357325 6.5306244333 13.0893666850  
Pt 5.6606569130 6.5339003649 13.1102309689  
Pt 8.4793660928 6.5340748680 13.1102634398  
Pt -0.0133054665 -0.0089129933 15.4314203372  
Pt 2.8265703914 -0.0332281854 15.4995317161  
Pt 5.6660528703 -0.0088468340 15.4314648940  
Pt 1.3856726030 2.4624769957 15.4996921204  
Pt 4.2670493187 2.4622249185 15.4995001150  
Pt 7.0688632524 2.4457666544 15.4357515259  
Pt 2.8264352917 4.9095545287 15.4316746938  
Pt 5.6537087794 4.8970271735 15.4358323446  
Pt 8.4843449104 4.8971928263 15.4359334922  
H 2.8257863367 1.6302883852 16.3530917803  

