&CONTROL
   tprnfor          = .true.
   pseudo_dir       = '/users/kbadger1/espresso/pseudo/pslibrary.1.0.0/pbe/PSEUDOPOTENTIALS/'
/
&SYSTEM
   ecutwfc          = 40
   ecutrho          = 410
   nosym            = .true.
   occupations      = 'smearing'
   degauss          = 0.02
   smearing         = 'marzari-vanderbilt'
   nspin            = 1
   input_dft        = 'beef-vdw'
   ntyp             = 2
   nat              = 37
   ibrav            = 0
/
&ELECTRONS
   mixing_mode      = 'local-TF'
/
&IONS
/
&CELL
/
&FCP
/
&RISM
/
ATOMIC_SPECIES
Pt 195.084 Pt.pbe-n-kjpaw_psl.1.0.0.UPF
H 1.008 H.pbe-kjpaw_psl.1.0.0.UPF

K_POINTS automatic
5 5 1  0 0 0

CELL_PARAMETERS angstrom
8.46831000000000 0.00000000000000 0.00000000000000
4.23415500000000 7.33377158712180 0.00000000000000
0.00000000000000 0.00000000000000 24.96566199000000

ATOMIC_POSITIONS angstrom
Pt 0.0000000000 0.0000000000 8.5000000000   0 0 0
Pt 2.8284271247 0.0000000000 8.5000000000   0 0 0
Pt 5.6568542495 0.0000000000 8.5000000000   0 0 0
Pt 1.4142135624 2.4494897428 8.5000000000   0 0 0
Pt 4.2426406871 2.4494897428 8.5000000000   0 0 0
Pt 7.0710678119 2.4494897428 8.5000000000   0 0 0
Pt 2.8284271247 4.8989794856 8.5000000000   0 0 0
Pt 5.6568542495 4.8989794856 8.5000000000   0 0 0
Pt 8.4852813742 4.8989794856 8.5000000000   0 0 0
Pt 1.4142135624 0.8164965809 10.8094010768   0 0 0
Pt 4.2426406871 0.8164965809 10.8094010768   0 0 0
Pt 7.0710678119 0.8164965809 10.8094010768   0 0 0
Pt 2.8284271247 3.2659863237 10.8094010768   0 0 0
Pt 5.6568542495 3.2659863237 10.8094010768   0 0 0
Pt 8.4852813742 3.2659863237 10.8094010768   0 0 0
Pt 4.2426406871 5.7154760665 10.8094010768   0 0 0
Pt 7.0710678119 5.7154760665 10.8094010768   0 0 0
Pt 9.8994949366 5.7154760665 10.8094010768   0 0 0
Pt 0.0164616762 1.6417930654 13.1037252167  
Pt 2.8339096820 1.6387024666 13.1156511624  
Pt 5.6528836059 1.6409448324 13.1004638579  
Pt 1.4236799347 4.0792064948 13.1035185577  
Pt 4.2454870289 4.0787922937 13.1004963744  
Pt 7.0691159567 4.0838031641 13.0924089799  
Pt 2.8362538904 6.5290399504 13.0918919919  
Pt 5.6619673922 6.5306606372 13.1034077105  
Pt 8.4766254865 6.5307551412 13.1032151784  
Pt 0.0023485629 0.0066386642 15.4258116692  
Pt 2.8352082601 -0.0162748176 15.4864536239  
Pt 5.6684055999 0.0066849630 15.4241865425  
Pt 1.3976605555 2.4716292562 15.4874971321  
Pt 4.2733034291 2.4720358757 15.4860021702  
Pt 7.0697402563 2.4555320405 15.4276882878  
Pt 2.8355229214 4.9136214538 15.4239453101  
Pt 5.6571252429 4.9028310248 15.4276092565  
Pt 8.4814031382 4.9023958728 15.4282050316  
H 2.8359499853 1.6533963816 16.3461749891  

