&CONTROL
   tprnfor          = .true.
   pseudo_dir       = '/users/kbadger1/espresso/pseudo/pslibrary.1.0.0/pbe/PSEUDOPOTENTIALS/'
/
&SYSTEM
   ecutwfc          = 40
   ecutrho          = 410
   nosym            = .true.
   occupations      = 'smearing'
   degauss          = 0.02
   smearing         = 'marzari-vanderbilt'
   nspin            = 1
   input_dft        = 'beef-vdw'
   ntyp             = 2
   nat              = 37
   ibrav            = 0
/
&ELECTRONS
   mixing_mode      = 'local-TF'
/
&IONS
/
&CELL
/
&FCP
/
&RISM
/
ATOMIC_SPECIES
Pt 195.084 Pt.pbe-n-kjpaw_psl.1.0.0.UPF
H 1.008 H.pbe-kjpaw_psl.1.0.0.UPF

K_POINTS automatic
5 5 1  0 0 0

CELL_PARAMETERS angstrom
8.48528137423857 0.00000000000000 0.00000000000000
4.24264068711929 7.34846922834953 0.00000000000000
0.00000000000000 0.00000000000000 23.92820323027551

ATOMIC_POSITIONS angstrom
Pt 0.0000000000 0.0000000000 8.5000000000   0 0 0
Pt 2.8284271247 0.0000000000 8.5000000000   0 0 0
Pt 5.6568542495 0.0000000000 8.5000000000   0 0 0
Pt 1.4142135624 2.4494897428 8.5000000000   0 0 0
Pt 4.2426406871 2.4494897428 8.5000000000   0 0 0
Pt 7.0710678119 2.4494897428 8.5000000000   0 0 0
Pt 2.8284271247 4.8989794856 8.5000000000   0 0 0
Pt 5.6568542495 4.8989794856 8.5000000000   0 0 0
Pt 8.4852813742 4.8989794856 8.5000000000   0 0 0
Pt 1.4142135624 0.8164965809 10.8094010768   0 0 0
Pt 4.2426406871 0.8164965809 10.8094010768   0 0 0
Pt 7.0710678119 0.8164965809 10.8094010768   0 0 0
Pt 2.8284271247 3.2659863237 10.8094010768   0 0 0
Pt 5.6568542495 3.2659863237 10.8094010768   0 0 0
Pt 8.4852813742 3.2659863237 10.8094010768   0 0 0
Pt 4.2426406871 5.7154760665 10.8094010768   0 0 0
Pt 7.0710678119 5.7154760665 10.8094010768   0 0 0
Pt 9.8994949366 5.7154760665 10.8094010768   0 0 0
Pt 0.0035779008 1.6347657472 13.0949712050  
Pt 2.8277097398 1.6320572789 13.1074107987  
Pt 5.6519456154 1.6348160063 13.0950608124  
Pt 1.4137727512 4.0768481575 13.0951141207  
Pt 4.2420819457 4.0766961563 13.0950993303  
Pt 7.0704851430 4.0817795151 13.0881012927  
Pt 2.8279047879 6.5312785614 13.0807548840  
Pt 5.6604782392 6.5335376255 13.0949972186  
Pt 8.4805448837 6.5337270032 13.0950466891  
Pt -0.0119470686 -0.0078938042 15.4089464468  
Pt 2.8271262471 -0.0332425451 15.4715525336  
Pt 5.6658617643 -0.0077332994 15.4092151628  
Pt 1.3860455832 2.4631790372 15.4714082630  
Pt 4.2668894237 2.4624308342 15.4709531419  
Pt 7.0692247903 2.4463855126 15.4162802558  
Pt 2.8271599779 4.9090842867 15.4092695923  
Pt 5.6540748282 4.8972938742 15.4162825802  
Pt 8.4850818588 4.8977238947 15.4163265342  
H 2.8200864204 1.6251750569 16.3227904499  

