&CONTROL
   tprnfor          = .true.
   pseudo_dir       = '/users/kbadger1/espresso/pseudo/pslibrary.1.0.0/pbe/PSEUDOPOTENTIALS/'
/
&SYSTEM
   ecutwfc          = 40
   ecutrho          = 410
   nosym            = .true.
   occupations      = 'smearing'
   degauss          = 0.001
   smearing         = 'marzari-vanderbilt'
   nspin            = 1
   input_dft        = 'beef-vdw'
   ntyp             = 4
   nat              = 41
   ibrav            = 0
/
&ELECTRONS
   mixing_mode      = 'local-TF'
/
&IONS
/
&CELL
/
&FCP
/
&RISM
/
ATOMIC_SPECIES
Pt 195.084 Pt.pbe-n-kjpaw_psl.1.0.0.UPF
O 15.999 O.pbe-nl-kjpaw_psl.1.0.0.UPF
H 1.008 H.pbe-kjpaw_psl.1.0.0.UPF
C 12.011 C.pbe-n-kjpaw_psl.1.0.0.UPF

K_POINTS automatic
5 5 1  0 0 0

CELL_PARAMETERS angstrom
8.48528137423857 0.00000000000000 0.00000000000000
4.24264068711929 7.34846922834953 0.00000000000000
0.00000000000000 0.00000000000000 23.92820323027551

ATOMIC_POSITIONS angstrom
Pt 0.0000000000 0.0000000000 8.5000000000   0 0 0
Pt 2.8284271247 0.0000000000 8.5000000000   0 0 0
Pt 5.6568542495 0.0000000000 8.5000000000   0 0 0
Pt 1.4142135624 2.4494897428 8.5000000000   0 0 0
Pt 4.2426406871 2.4494897428 8.5000000000   0 0 0
Pt 7.0710678119 2.4494897428 8.5000000000   0 0 0
Pt 2.8284271247 4.8989794856 8.5000000000   0 0 0
Pt 5.6568542495 4.8989794856 8.5000000000   0 0 0
Pt 8.4852813742 4.8989794856 8.5000000000   0 0 0
Pt 1.4142135624 0.8164965809 10.8094010768   0 0 0
Pt 4.2426406871 0.8164965809 10.8094010768   0 0 0
Pt 7.0710678119 0.8164965809 10.8094010768   0 0 0
Pt 2.8284271247 3.2659863237 10.8094010768   0 0 0
Pt 5.6568542495 3.2659863237 10.8094010768   0 0 0
Pt 8.4852813742 3.2659863237 10.8094010768   0 0 0
Pt 4.2426406871 5.7154760665 10.8094010768   0 0 0
Pt 7.0710678119 5.7154760665 10.8094010768   0 0 0
Pt 9.8994949366 5.7154760665 10.8094010768   0 0 0
Pt -0.0177055165 1.6538822578 13.1197128782  
Pt 2.8278986664 1.6822237052 13.1262797252  
Pt 5.6227560320 1.6845478189 13.1296617330  
Pt 1.4129572349 4.1250419254 13.1263748251  
Pt 4.2266088656 4.1053181454 13.1373004662  
Pt 7.0402111661 4.1245171523 13.1272630353  
Pt 2.8168466579 6.5690095375 13.0984759368  
Pt 5.6344215647 6.5654829993 13.1014097736  
Pt 8.4692969462 6.5648912823 13.0865167846  
Pt -0.0280914383 0.1796499561 15.4834876495  
Pt 2.8145767509 0.0704721324 15.3947378928  
Pt 5.6108385184 0.0741737015 15.3990895098  
Pt 1.3740851377 2.5140975268 15.4403912565  
Pt 4.2088805107 2.4806353382 15.6500595188  
Pt 7.0536286673 2.5123556202 15.4444000801  
Pt 2.7100889235 4.9107884593 15.4576308352  
Pt 5.7213224654 4.9021827866 15.4734102960  
Pt 8.4577783500 4.9632215411 15.4378955712  
O 4.2157303857 5.7880071060 16.5712922129  
H 3.7671633852 3.5905117317 17.9918681803  
H 5.1629822988 2.4666025553 18.1014203387  
H 3.4888946525 1.8148997953 18.1006703926  
C 4.1466934200 2.6016216495 17.7347231927  

