&CONTROL
   tprnfor          = .true.
   pseudo_dir       = '/users/kbadger1/espresso/pseudo/pslibrary.1.0.0/pbe/PSEUDOPOTENTIALS/'
/
&SYSTEM
   ecutwfc          = 40
   ecutrho          = 410
   nosym            = .true.
   occupations      = 'smearing'
   degauss          = 0.02
   smearing         = 'marzari-vanderbilt'
   nspin            = 1
   input_dft        = 'beef-vdw'
   ntyp             = 2
   nat              = 37
   ibrav            = 0
/
&ELECTRONS
   mixing_mode      = 'local-TF'
/
&IONS
/
&CELL
/
&FCP
/
&RISM
/
ATOMIC_SPECIES
Pt 195.084 Pt.pbe-n-kjpaw_psl.1.0.0.UPF
H 1.008 H.pbe-kjpaw_psl.1.0.0.UPF

K_POINTS automatic
5 5 1  0 0 0

CELL_PARAMETERS angstrom
8.46831000000000 0.00000000000000 0.00000000000000
4.23415500000000 7.33377158712180 0.00000000000000
0.00000000000000 0.00000000000000 24.96566199000000

ATOMIC_POSITIONS angstrom
Pt 0.0000000000 0.0000000000 8.5000000000   0 0 0
Pt 2.8284271247 0.0000000000 8.5000000000   0 0 0
Pt 5.6568542495 0.0000000000 8.5000000000   0 0 0
Pt 1.4142135624 2.4494897428 8.5000000000   0 0 0
Pt 4.2426406871 2.4494897428 8.5000000000   0 0 0
Pt 7.0710678119 2.4494897428 8.5000000000   0 0 0
Pt 2.8284271247 4.8989794856 8.5000000000   0 0 0
Pt 5.6568542495 4.8989794856 8.5000000000   0 0 0
Pt 8.4852813742 4.8989794856 8.5000000000   0 0 0
Pt 1.4142135624 0.8164965809 10.8094010768   0 0 0
Pt 4.2426406871 0.8164965809 10.8094010768   0 0 0
Pt 7.0710678119 0.8164965809 10.8094010768   0 0 0
Pt 2.8284271247 3.2659863237 10.8094010768   0 0 0
Pt 5.6568542495 3.2659863237 10.8094010768   0 0 0
Pt 8.4852813742 3.2659863237 10.8094010768   0 0 0
Pt 4.2426406871 5.7154760665 10.8094010768   0 0 0
Pt 7.0710678119 5.7154760665 10.8094010768   0 0 0
Pt 9.8994949366 5.7154760665 10.8094010768   0 0 0
Pt 0.0507017360 1.6350843784 13.1329635780  
Pt 2.8537474802 1.6192450674 13.1017533430  
Pt 5.6788246536 1.6231753351 13.0952370293  
Pt 1.4399367500 4.0571129776 13.1070326435  
Pt 4.2618088602 4.0612930702 13.0957551887  
Pt 7.0862559358 4.0637728266 13.0930943706  
Pt 2.8557081125 6.5143474211 13.0929028261  
Pt 5.6747390515 6.5078093977 13.0954838342  
Pt 8.5001513809 6.5046461232 13.0923551554  
Pt 0.0494414322 -0.0371573774 15.4261951414  
Pt 2.8806642265 -0.0558667236 15.4167391643  
Pt 5.6981210222 -0.0360088004 15.4256695500  
Pt 1.4826243495 2.4005285535 15.5269510989  
Pt 4.3096477089 2.4042989693 15.4361631080  
Pt 7.1089892865 2.4090317386 15.4290665609  
Pt 2.8751561864 4.8719655604 15.4152786536  
Pt 5.6990638176 4.8525312008 15.4213445710  
Pt 8.5214116680 4.8522463730 15.4232453393  
H 2.2724092672 2.4353181897 16.8926962295  

