&CONTROL
   tprnfor          = .true.
   pseudo_dir       = '/users/kbadger1/espresso/pseudo/pslibrary.1.0.0/pbe/PSEUDOPOTENTIALS/'
/
&SYSTEM
   ecutwfc          = 40
   ecutrho          = 410
   nosym            = .true.
   occupations      = 'smearing'
   degauss          = 0.001
   smearing         = 'marzari-vanderbilt'
   nspin            = 1
   input_dft        = 'beef-vdw'
   ntyp             = 3
   nat              = 39
   ibrav            = 0
/
&ELECTRONS
   mixing_mode      = 'local-TF'
/
&IONS
/
&CELL
/
&FCP
/
&RISM
/
ATOMIC_SPECIES
Pt 195.084 Pt.pbe-n-kjpaw_psl.1.0.0.UPF
C 12.011 C.pbe-n-kjpaw_psl.1.0.0.UPF
H 1.008 H.pbe-kjpaw_psl.1.0.0.UPF

K_POINTS automatic
5 5 1  0 0 0

CELL_PARAMETERS angstrom
8.48528137423857 0.00000000000000 0.00000000000000
4.24264068711929 7.34846922834953 0.00000000000000
0.00000000000000 0.00000000000000 23.92820323027551

ATOMIC_POSITIONS angstrom
Pt 0.0000000000 0.0000000000 8.5000000000   0 0 0
Pt 2.8284271247 0.0000000000 8.5000000000   0 0 0
Pt 5.6568542495 0.0000000000 8.5000000000   0 0 0
Pt 1.4142135624 2.4494897428 8.5000000000   0 0 0
Pt 4.2426406871 2.4494897428 8.5000000000   0 0 0
Pt 7.0710678119 2.4494897428 8.5000000000   0 0 0
Pt 2.8284271247 4.8989794856 8.5000000000   0 0 0
Pt 5.6568542495 4.8989794856 8.5000000000   0 0 0
Pt 8.4852813742 4.8989794856 8.5000000000   0 0 0
Pt 1.4142135624 0.8164965809 10.8094010768   0 0 0
Pt 4.2426406871 0.8164965809 10.8094010768   0 0 0
Pt 7.0710678119 0.8164965809 10.8094010768   0 0 0
Pt 2.8284271247 3.2659863237 10.8094010768   0 0 0
Pt 5.6568542495 3.2659863237 10.8094010768   0 0 0
Pt 8.4852813742 3.2659863237 10.8094010768   0 0 0
Pt 4.2426406871 5.7154760665 10.8094010768   0 0 0
Pt 7.0710678119 5.7154760665 10.8094010768   0 0 0
Pt 9.8994949366 5.7154760665 10.8094010768   0 0 0
Pt 0.0180329531 1.6083356676 13.1417290171  
Pt 2.8097401561 1.6083429393 13.1416475845  
Pt 5.6565722072 1.6324433829 13.0515019082  
Pt 1.4138520692 4.0547714043 13.1405056852  
Pt 4.2193595246 4.0878069191 13.1203947079  
Pt 7.0936845691 4.0878047330 13.1203884176  
Pt 2.8443783902 6.5123722153 13.1371891615  
Pt 5.6565464841 6.5363026953 13.1299407464  
Pt 8.4686966050 6.5123713588 13.1370834194  
Pt -0.1321814984 -0.1369366249 15.5670284182  
Pt 2.9593479360 -0.1367041521 15.5668334014  
Pt 5.6562598840 0.0045227685 15.3795793763  
Pt 1.4133699320 2.3549457608 15.6271851952  
Pt 4.2815558962 2.4106235368 15.3897567213  
Pt 7.0308730063 2.4106338894 15.3897832964  
Pt 2.8385525437 4.8217001009 15.6132021580  
Pt 5.6561625893 4.8191120306 15.3944580591  
Pt 8.4735516536 4.8218602290 15.6130276445  
C 1.4135940491 0.5549859166 16.4184497009  
H 1.4129506337 3.4160184536 17.6457754488  
C 1.4133227982 4.0761732077 16.7567203804  

