&CONTROL
   tprnfor          = .true.
   pseudo_dir       = '/users/kbadger1/espresso/pseudo/pslibrary.1.0.0/pbe/PSEUDOPOTENTIALS/'
/
&SYSTEM
   ecutwfc          = 40
   ecutrho          = 410
   nosym            = .true.
   occupations      = 'smearing'
   degauss          = 0.001
   smearing         = 'marzari-vanderbilt'
   nspin            = 1
   input_dft        = 'beef-vdw'
   ntyp             = 3
   nat              = 38
   ibrav            = 0
/
&ELECTRONS
   conv_thr         = 1e-08
   mixing_mode      = 'local-TF'
/
&IONS
/
&CELL
/
&FCP
/
&RISM
/
ATOMIC_SPECIES
Pt 195.084 Pt.pbe-n-kjpaw_psl.1.0.0.UPF
C 12.011 C.pbe-n-kjpaw_psl.1.0.0.UPF
H 1.008 H.pbe-kjpaw_psl.1.0.0.UPF

K_POINTS automatic
5 5 1  0 0 0

CELL_PARAMETERS angstrom
8.48528137423857 0.00000000000000 0.00000000000000
4.24264068711929 7.34846922834953 0.00000000000000
0.00000000000000 0.00000000000000 23.92820323027551

ATOMIC_POSITIONS angstrom
Pt 0.0000000000 0.0000000000 8.5000000000   0 0 0
Pt 2.8284271247 0.0000000000 8.5000000000   0 0 0
Pt 5.6568542495 0.0000000000 8.5000000000   0 0 0
Pt 1.4142135624 2.4494897428 8.5000000000   0 0 0
Pt 4.2426406871 2.4494897428 8.5000000000   0 0 0
Pt 7.0710678119 2.4494897428 8.5000000000   0 0 0
Pt 2.8284271247 4.8989794856 8.5000000000   0 0 0
Pt 5.6568542495 4.8989794856 8.5000000000   0 0 0
Pt 8.4852813742 4.8989794856 8.5000000000   0 0 0
Pt 1.4142135624 0.8164965809 10.8094010768   0 0 0
Pt 4.2426406871 0.8164965809 10.8094010768   0 0 0
Pt 7.0710678119 0.8164965809 10.8094010768   0 0 0
Pt 2.8284271247 3.2659863237 10.8094010768   0 0 0
Pt 5.6568542495 3.2659863237 10.8094010768   0 0 0
Pt 8.4852813742 3.2659863237 10.8094010768   0 0 0
Pt 4.2426406871 5.7154760665 10.8094010768   0 0 0
Pt 7.0710678119 5.7154760665 10.8094010768   0 0 0
Pt 9.8994949366 5.7154760665 10.8094010768   0 0 0
Pt 0.0238510093 1.6453320384 13.1667500270  
Pt 2.8045888808 1.6453306547 13.1667124420  
Pt 5.6568266725 1.6553770482 13.0868783312  
Pt 1.4142253885 4.0619702508 13.1357740402  
Pt 4.2379366391 4.0934682444 13.0765249800  
Pt 7.0757401281 4.0934854650 13.0765222560  
Pt 2.8389533157 6.5593618338 13.1115195216  
Pt 5.6568495141 6.5571730544 13.1274030540  
Pt 8.4747468965 6.5593812949 13.1114941517  
Pt -0.1305162178 -0.0543316256 15.5512204099  
Pt 2.9588871103 -0.0543230336 15.5511620197  
Pt 5.6568248113 0.0375503069 15.4260535086  
Pt 1.4142000054 2.6358618216 15.7976456123  
Pt 4.2614801932 2.4915807045 15.4052895549  
Pt 7.0521878531 2.4916064952 15.4053338431  
Pt 2.8328593055 4.9296034646 15.4035270013  
Pt 5.6568528984 4.8907590740 15.3848469084  
Pt 8.4807958230 4.9296079182 15.4035468998  
C 1.4141949881 0.7526555085 16.2442496498  
H 1.4142571064 2.8695677223 17.3383065700  

