Pt H 
 1.0000000000000000
     8.4683100000000007    0.0000000000000000    0.0000000000000000
     4.2341550000000012    7.3337715871217997    0.0000000000000000
     0.0000000000000000    0.0000000000000000   24.9656619900000010
 Pt  H  
  36   1
Selective dynamics
Cartesian
  0.0000000000000000  0.0000000000000000  8.5000000000000000   F   F   F
  2.8284271247461903  0.0000000000000000  8.5000000000000000   F   F   F
  5.6568542494923806  0.0000000000000000  8.5000000000000000   F   F   F
  1.4142135623730951  2.4494897427831779  8.5000000000000000   F   F   F
  4.2426406871192857  2.4494897427831779  8.5000000000000000   F   F   F
  7.0710678118654755  2.4494897427831779  8.5000000000000000   F   F   F
  2.8284271247461903  4.8989794855663558  8.5000000000000000   F   F   F
  5.6568542494923806  4.8989794855663558  8.5000000000000000   F   F   F
  8.4852813742385713  4.8989794855663558  8.5000000000000000   F   F   F
  1.4142135623730951  0.8164965809277259 10.8094010767585029   F   F   F
  4.2426406871192848  0.8164965809277259 10.8094010767585029   F   F   F
  7.0710678118654755  0.8164965809277259 10.8094010767585029   F   F   F
  2.8284271247461903  3.2659863237109037 10.8094010767585029   F   F   F
  5.6568542494923806  3.2659863237109037 10.8094010767585029   F   F   F
  8.4852813742385713  3.2659863237109037 10.8094010767585029   F   F   F
  4.2426406871192857  5.7154760664940820 10.8094010767585029   F   F   F
  7.0710678118654755  5.7154760664940820 10.8094010767585029   F   F   F
  9.8994949366116671  5.7154760664940820 10.8094010767585029   F   F   F
  0.0299045038817487  1.6502887462111677 13.1140268591508526   T   T   T
  2.8432810776289275  1.6390542523571516 13.1126017255481049   T   T   T
  5.6658038294603212  1.6411575138612098 13.0932630870481734   T   T   T
  1.4293423270994396  4.0724105087773044 13.1129495244020671   T   T   T
  4.2529500622181962  4.0817478876589721 13.0935132931083373   T   T   T
  7.0758638101400511  4.0854016838348803 13.0897954631322353   T   T   T
  2.8441909655585929  6.5296420195903533 13.0852919459109724   T   T   T
  5.6683962422799832  6.5306123585786935 13.0966783442455768   T   T   T
  8.4879444716350978  6.5283529941598255 13.0963415195941479   T   T   T
  0.0173529005007308  0.0041046623628590 15.4128399491137902   T   T   T
  2.8642208069760984 -0.0136888018670012 15.4439846136075047   T   T   T
  5.6787437512002779  0.0084554211082719 15.4205447029008873   T   T   T
  1.4471607914887121  2.4494288333595549 15.5112327457018253   T   T   T
  4.2913833976862321  2.4574071056748092 15.4419210737357258   T   T   T
  7.0854354226495246  2.4549651712655893 15.4215303429350890   T   T   T
  2.8518193421348199  4.9105691287004412 15.4128739857744552   T   T   T
  5.6742635810772413  4.9001685851602188 15.4169026230537529   T   T   T
  8.4979513229253349  4.9007177667517139 15.4217270491209728   T   T   T
  2.3941342675862862  1.9042611865177408 16.6930360904668831   T   T   T
