&CONTROL
   tprnfor          = .true.
   pseudo_dir       = '/users/kbadger1/espresso/pseudo/pslibrary.1.0.0/pbe/PSEUDOPOTENTIALS/'
/
&SYSTEM
   ecutwfc          = 40
   ecutrho          = 410
   nosym            = .true.
   occupations      = 'smearing'
   degauss          = 0.001
   smearing         = 'marzari-vanderbilt'
   nspin            = 1
   input_dft        = 'beef-vdw'
   ntyp             = 3
   nat              = 39
   ibrav            = 0
/
&ELECTRONS
   mixing_mode      = 'local-TF'
/
&IONS
/
&CELL
/
&FCP
/
&RISM
/
ATOMIC_SPECIES
Pt 195.084 Pt.pbe-n-kjpaw_psl.1.0.0.UPF
O 15.999 O.pbe-nl-kjpaw_psl.1.0.0.UPF
H 1.008 H.pbe-kjpaw_psl.1.0.0.UPF

K_POINTS automatic
5 5 1  0 0 0

CELL_PARAMETERS angstrom
8.48528137423857 0.00000000000000 0.00000000000000
4.24264068711929 7.34846922834953 0.00000000000000
0.00000000000000 0.00000000000000 23.92820323027551

ATOMIC_POSITIONS angstrom
Pt 0.0000000000 0.0000000000 8.5000000000   0 0 0
Pt 2.8284271247 0.0000000000 8.5000000000   0 0 0
Pt 5.6568542495 0.0000000000 8.5000000000   0 0 0
Pt 1.4142135624 2.4494897428 8.5000000000   0 0 0
Pt 4.2426406871 2.4494897428 8.5000000000   0 0 0
Pt 7.0710678119 2.4494897428 8.5000000000   0 0 0
Pt 2.8284271247 4.8989794856 8.5000000000   0 0 0
Pt 5.6568542495 4.8989794856 8.5000000000   0 0 0
Pt 8.4852813742 4.8989794856 8.5000000000   0 0 0
Pt 1.4142135624 0.8164965809 10.8094010768   0 0 0
Pt 4.2426406871 0.8164965809 10.8094010768   0 0 0
Pt 7.0710678119 0.8164965809 10.8094010768   0 0 0
Pt 2.8284271247 3.2659863237 10.8094010768   0 0 0
Pt 5.6568542495 3.2659863237 10.8094010768   0 0 0
Pt 8.4852813742 3.2659863237 10.8094010768   0 0 0
Pt 4.2426406871 5.7154760665 10.8094010768   0 0 0
Pt 7.0710678119 5.7154760665 10.8094010768   0 0 0
Pt 9.8994949366 5.7154760665 10.8094010768   0 0 0
Pt -0.0623350764 1.6784923263 13.0867637358  
Pt 2.7770931770 1.6965632337 13.1432004179  
Pt 5.5827122200 1.6837425535 13.1334043477  
Pt 1.3476442857 4.1363084189 13.1039413534  
Pt 4.1677800555 4.1158765965 13.1515355222  
Pt 7.0067873472 4.1346640510 13.0950654522  
Pt 2.7484923193 6.5917629300 13.1197513713  
Pt 5.5847652242 6.5803047602 13.0851783821  
Pt 8.4237929296 6.5911538087 13.1173263501  
Pt -0.1307126631 0.1038993113 15.4384431295  
Pt 2.6726884214 0.0849281592 15.4165939690  
Pt 5.5258928424 0.0962821608 15.5283007610  
Pt 1.2595882060 2.5553068676 15.4229036023  
Pt 4.1088086496 2.5781683015 15.5678291767  
Pt 6.9575318175 2.5563910792 15.4147315776  
Pt 2.6843048226 5.0253728157 15.4434276781  
Pt 5.5326785297 5.0188731850 15.4293757068  
Pt 8.3496340434 5.0009171285 15.4363467848  
O 4.0700586900 2.4420205211 17.5813316566  
H 4.9610666391 2.6596151443 17.9047460421  
H 5.2714854361 0.3488979420 17.0425131818  

