&CONTROL
   tprnfor          = .true.
   pseudo_dir       = '/users/kbadger1/espresso/pseudo/pslibrary.1.0.0/pbe/PSEUDOPOTENTIALS/'
/
&SYSTEM
   ecutwfc          = 40
   ecutrho          = 410
   nosym            = .true.
   occupations      = 'smearing'
   degauss          = 0.001
   smearing         = 'marzari-vanderbilt'
   nspin            = 1
   input_dft        = 'beef-vdw'
   ntyp             = 3
   nat              = 38
   ibrav            = 0
/
&ELECTRONS
   conv_thr         = 1e-08
   mixing_mode      = 'local-TF'
/
&IONS
/
&CELL
/
&FCP
/
&RISM
/
ATOMIC_SPECIES
Pt 195.084 Pt.pbe-n-kjpaw_psl.1.0.0.UPF
C 12.011 C.pbe-n-kjpaw_psl.1.0.0.UPF
H 1.008 H.pbe-kjpaw_psl.1.0.0.UPF

K_POINTS automatic
5 5 1  0 0 0

CELL_PARAMETERS angstrom
8.48528137423857 0.00000000000000 0.00000000000000
4.24264068711929 7.34846922834953 0.00000000000000
0.00000000000000 0.00000000000000 23.92820323027551

ATOMIC_POSITIONS angstrom
Pt 0.0000000000 0.0000000000 8.5000000000   0 0 0
Pt 2.8284271247 0.0000000000 8.5000000000   0 0 0
Pt 5.6568542495 0.0000000000 8.5000000000   0 0 0
Pt 1.4142135624 2.4494897428 8.5000000000   0 0 0
Pt 4.2426406871 2.4494897428 8.5000000000   0 0 0
Pt 7.0710678119 2.4494897428 8.5000000000   0 0 0
Pt 2.8284271247 4.8989794856 8.5000000000   0 0 0
Pt 5.6568542495 4.8989794856 8.5000000000   0 0 0
Pt 8.4852813742 4.8989794856 8.5000000000   0 0 0
Pt 1.4142135624 0.8164965809 10.8094010768   0 0 0
Pt 4.2426406871 0.8164965809 10.8094010768   0 0 0
Pt 7.0710678119 0.8164965809 10.8094010768   0 0 0
Pt 2.8284271247 3.2659863237 10.8094010768   0 0 0
Pt 5.6568542495 3.2659863237 10.8094010768   0 0 0
Pt 8.4852813742 3.2659863237 10.8094010768   0 0 0
Pt 4.2426406871 5.7154760665 10.8094010768   0 0 0
Pt 7.0710678119 5.7154760665 10.8094010768   0 0 0
Pt 9.8994949366 5.7154760665 10.8094010768   0 0 0
Pt 0.0031570554 1.6688566144 13.1144584416  
Pt 2.8252225426 1.6688442894 13.1144619270  
Pt 5.6568817179 1.6700831895 13.0899422341  
Pt 1.4141798267 4.1474587088 13.0782307670  
Pt 4.2404208678 4.1252153613 13.0914693286  
Pt 7.0733038862 4.1252096344 13.0914684764  
Pt 2.8446689924 6.5883855858 13.1224340494  
Pt 5.6568493036 6.5818800313 13.1362600396  
Pt 8.4690192377 6.5883498870 13.1224199192  
Pt -0.0366228739 0.0797991096 15.5795353499  
Pt 2.8650173740 0.0797850163 15.5795251924  
Pt 5.6568408531 0.0935901224 15.4398345745  
Pt 1.4141832198 2.6757936601 15.4274623984  
Pt 4.2721293386 2.5516341085 15.4112422907  
Pt 7.0415668756 2.5516401155 15.4112391632  
Pt 2.8447884846 5.0109130607 15.4375069763  
Pt 5.6568451737 4.9553090911 15.4177957611  
Pt 8.4688873250 5.0108922715 15.4375004907  
C 1.4142120949 1.0416582580 16.5457687224  
H 1.4142104697 1.4648646352 17.5518261760  

