&CONTROL
   tprnfor          = .true.
   pseudo_dir       = '/users/kbadger1/espresso/pseudo/pslibrary.1.0.0/pbe/PSEUDOPOTENTIALS/'
/
&SYSTEM
   ecutwfc          = 40
   ecutrho          = 410
   nosym            = .true.
   occupations      = 'smearing'
   degauss          = 0.001
   smearing         = 'marzari-vanderbilt'
   nspin            = 1
   input_dft        = 'beef-vdw'
   ntyp             = 3
   nat              = 39
   ibrav            = 0
/
&ELECTRONS
   conv_thr         = 1e-08
   mixing_mode      = 'local-TF'
/
&IONS
/
&CELL
/
&FCP
/
&RISM
/
ATOMIC_SPECIES
Pt 195.084 Pt.pbe-n-kjpaw_psl.1.0.0.UPF
O 15.999 O.pbe-nl-kjpaw_psl.1.0.0.UPF
H 1.008 H.pbe-kjpaw_psl.1.0.0.UPF

K_POINTS automatic
5 5 1  0 0 0

CELL_PARAMETERS angstrom
8.48528137423857 0.00000000000000 0.00000000000000
4.24264068711929 7.34846922834953 0.00000000000000
0.00000000000000 0.00000000000000 23.92820323027551

ATOMIC_POSITIONS angstrom
Pt 0.0000000000 0.0000000000 8.5000000000   0 0 0
Pt 2.8284271247 0.0000000000 8.5000000000   0 0 0
Pt 5.6568542495 0.0000000000 8.5000000000   0 0 0
Pt 1.4142135624 2.4494897428 8.5000000000   0 0 0
Pt 4.2426406871 2.4494897428 8.5000000000   0 0 0
Pt 7.0710678119 2.4494897428 8.5000000000   0 0 0
Pt 2.8284271247 4.8989794856 8.5000000000   0 0 0
Pt 5.6568542495 4.8989794856 8.5000000000   0 0 0
Pt 8.4852813742 4.8989794856 8.5000000000   0 0 0
Pt 1.4142135624 0.8164965809 10.8094010768   0 0 0
Pt 4.2426406871 0.8164965809 10.8094010768   0 0 0
Pt 7.0710678119 0.8164965809 10.8094010768   0 0 0
Pt 2.8284271247 3.2659863237 10.8094010768   0 0 0
Pt 5.6568542495 3.2659863237 10.8094010768   0 0 0
Pt 8.4852813742 3.2659863237 10.8094010768   0 0 0
Pt 4.2426406871 5.7154760665 10.8094010768   0 0 0
Pt 7.0710678119 5.7154760665 10.8094010768   0 0 0
Pt 9.8994949366 5.7154760665 10.8094010768   0 0 0
Pt -0.0640194757 1.6845636142 13.0880374306  
Pt 2.7652889232 1.7000033167 13.1249498694  
Pt 5.5877598925 1.6858430615 13.1205899992  
Pt 1.3421122037 4.1450841708 13.1100872538  
Pt 4.1594427098 4.1076453642 13.1674317968  
Pt 7.0026152297 4.1452582216 13.0959799725  
Pt 2.7505191667 6.5895272668 13.1177034074  
Pt 5.5765303486 6.5800965728 13.0822226957  
Pt 8.4233668980 6.5980075688 13.1148961065  
Pt -0.1441106644 0.1224962762 15.4389151870  
Pt 2.6617484731 0.0947675687 15.3987559670  
Pt 5.5207927408 0.1164813859 15.5366588884  
Pt 1.2566474454 2.5745767068 15.4281785556  
Pt 4.0996426642 2.6141347960 15.5393067830  
Pt 6.9558482033 2.5790429273 15.4078420147  
Pt 2.6729792105 5.0493770863 15.4654745325  
Pt 5.5237484143 5.0370231432 15.4394494334  
Pt 8.3438721001 5.0230957388 15.4473170193  
O 4.2459891368 2.0867227715 17.5628915376  
H 4.9520936893 2.6459209787 17.9325636207  
H 5.0575022522 0.7738106178 16.9481388660  

