&CONTROL
   tprnfor          = .true.
   pseudo_dir       = '/users/kbadger1/espresso/pseudo/pslibrary.1.0.0/pbe/PSEUDOPOTENTIALS/'
/
&SYSTEM
   ecutwfc          = 40
   ecutrho          = 410
   nosym            = .true.
   occupations      = 'smearing'
   degauss          = 0.02
   smearing         = 'marzari-vanderbilt'
   nspin            = 1
   input_dft        = 'beef-vdw'
   ntyp             = 3
   nat              = 39
   ibrav            = 0
/
&ELECTRONS
   conv_thr         = 1e-08
   mixing_mode      = 'local-TF'
/
&IONS
/
&CELL
/
&FCP
/
&RISM
/
ATOMIC_SPECIES
Pt 195.084 Pt.pbe-n-kjpaw_psl.1.0.0.UPF
O 15.999 O.pbe-nl-kjpaw_psl.1.0.0.UPF
H 1.008 H.pbe-kjpaw_psl.1.0.0.UPF

K_POINTS automatic
5 5 1  0 0 0

CELL_PARAMETERS angstrom
8.48528137423857 0.00000000000000 0.00000000000000
4.24264068711929 7.34846922834953 0.00000000000000
0.00000000000000 0.00000000000000 23.92820323027551

ATOMIC_POSITIONS angstrom
Pt 0.0000000000 0.0000000000 8.5000000000   0 0 0
Pt 2.8284271247 0.0000000000 8.5000000000   0 0 0
Pt 5.6568542495 0.0000000000 8.5000000000   0 0 0
Pt 1.4142135624 2.4494897428 8.5000000000   0 0 0
Pt 4.2426406871 2.4494897428 8.5000000000   0 0 0
Pt 7.0710678119 2.4494897428 8.5000000000   0 0 0
Pt 2.8284271247 4.8989794856 8.5000000000   0 0 0
Pt 5.6568542495 4.8989794856 8.5000000000   0 0 0
Pt 8.4852813742 4.8989794856 8.5000000000   0 0 0
Pt 1.4142135624 0.8164965809 10.8094010768   0 0 0
Pt 4.2426406871 0.8164965809 10.8094010768   0 0 0
Pt 7.0710678119 0.8164965809 10.8094010768   0 0 0
Pt 2.8284271247 3.2659863237 10.8094010768   0 0 0
Pt 5.6568542495 3.2659863237 10.8094010768   0 0 0
Pt 8.4852813742 3.2659863237 10.8094010768   0 0 0
Pt 4.2426406871 5.7154760665 10.8094010768   0 0 0
Pt 7.0710678119 5.7154760665 10.8094010768   0 0 0
Pt 9.8994949366 5.7154760665 10.8094010768   0 0 0
Pt -0.0122013579 1.6519306024 13.0768742476  
Pt 2.8262874809 1.6625754361 13.1162805263  
Pt 5.6357295223 1.6543170423 13.1179032403  
Pt 1.3983809498 4.1057322255 13.0898927220  
Pt 4.2213616891 4.0851774539 13.1325345413  
Pt 7.0565924890 4.1053060143 13.0835953201  
Pt 2.7998211209 6.5607339230 13.1033298546  
Pt 5.6364680606 6.5517836164 13.0726668546  
Pt 8.4766796417 6.5585890310 13.0995633334  
Pt -0.0351699431 0.0483966462 15.4151184290  
Pt 2.7704007441 0.0315877314 15.3902076865  
Pt 5.6211713363 0.0399042483 15.5035260383  
Pt 1.3632948094 2.4992067684 15.4006834171  
Pt 4.2189458944 2.5158154250 15.5292752593  
Pt 7.0570231786 2.5026962104 15.3934332633  
Pt 2.7843372154 4.9665954894 15.4154526723  
Pt 5.6283655018 4.9643960604 15.4102507290  
Pt 8.4456801154 4.9465862344 15.4174091336  
O 4.1917411028 2.3131482115 17.5455577388  
H 5.0284252826 2.6824308947 17.8766318083  
H 5.3410952074 0.3486799894 17.0045211938  

