&CONTROL
   tprnfor          = .true.
   pseudo_dir       = '/users/kbadger1/espresso/pseudo/pslibrary.1.0.0/pbe/PSEUDOPOTENTIALS/'
/
&SYSTEM
   ecutwfc          = 40
   ecutrho          = 410
   nosym            = .true.
   occupations      = 'smearing'
   degauss          = 0.02
   smearing         = 'marzari-vanderbilt'
   nspin            = 1
   input_dft        = 'beef-vdw'
   ntyp             = 3
   nat              = 38
   ibrav            = 0
/
&ELECTRONS
   conv_thr         = 1e-08
   mixing_mode      = 'local-TF'
/
&IONS
/
&CELL
/
&FCP
/
&RISM
/
ATOMIC_SPECIES
Pt 195.084 Pt.pbe-n-kjpaw_psl.1.0.0.UPF
C 12.011 C.pbe-n-kjpaw_psl.1.0.0.UPF
H 1.008 H.pbe-kjpaw_psl.1.0.0.UPF

K_POINTS automatic
5 5 1  0 0 0

CELL_PARAMETERS angstrom
8.48528137423857 0.00000000000000 0.00000000000000
4.24264068711929 7.34846922834953 0.00000000000000
0.00000000000000 0.00000000000000 23.92820323027551

ATOMIC_POSITIONS angstrom
Pt 0.0000000000 0.0000000000 8.5000000000   0 0 0
Pt 2.8284271247 0.0000000000 8.5000000000   0 0 0
Pt 5.6568542495 0.0000000000 8.5000000000   0 0 0
Pt 1.4142135624 2.4494897428 8.5000000000   0 0 0
Pt 4.2426406871 2.4494897428 8.5000000000   0 0 0
Pt 7.0710678119 2.4494897428 8.5000000000   0 0 0
Pt 2.8284271247 4.8989794856 8.5000000000   0 0 0
Pt 5.6568542495 4.8989794856 8.5000000000   0 0 0
Pt 8.4852813742 4.8989794856 8.5000000000   0 0 0
Pt 1.4142135624 0.8164965809 10.8094010768   0 0 0
Pt 4.2426406871 0.8164965809 10.8094010768   0 0 0
Pt 7.0710678119 0.8164965809 10.8094010768   0 0 0
Pt 2.8284271247 3.2659863237 10.8094010768   0 0 0
Pt 5.6568542495 3.2659863237 10.8094010768   0 0 0
Pt 8.4852813742 3.2659863237 10.8094010768   0 0 0
Pt 4.2426406871 5.7154760665 10.8094010768   0 0 0
Pt 7.0710678119 5.7154760665 10.8094010768   0 0 0
Pt 9.8994949366 5.7154760665 10.8094010768   0 0 0
Pt 0.0040921052 1.6568627111 13.1016679309  
Pt 2.8262962324 1.6568713395 13.1016970959  
Pt 5.6577452888 1.6577495539 13.0833882820  
Pt 1.4151362174 4.1342067416 13.0702065814  
Pt 4.2413185138 4.1126517520 13.0854524813  
Pt 7.0742178065 4.1126457107 13.0853694737  
Pt 2.8465204589 6.5755673513 13.1112890190  
Pt 5.6578575638 6.5693785945 13.1186758034  
Pt 8.4690780257 6.5756282308 13.1113728955  
Pt -0.0349311072 0.0593402271 15.5613113214  
Pt 2.8672924771 0.0593130807 15.5616726069  
Pt 5.6587889863 0.0701775066 15.4231510892  
Pt 1.4162506795 2.6513948903 15.4084291737  
Pt 4.2749740842 2.5330435489 15.4052129684  
Pt 7.0426772088 2.5330559258 15.4051233757  
Pt 2.8428410012 4.9916735810 15.4219692758  
Pt 5.6588503375 4.9382776715 15.4115023294  
Pt 8.4748806017 4.9917342494 15.4218353062  
C 1.4161222556 1.0171746826 16.5315458453  
H 1.4161126377 1.4830464388 17.5192373149  

