&CONTROL
   tprnfor          = .true.
   pseudo_dir       = '/users/kbadger1/espresso/pseudo/pslibrary.1.0.0/pbe/PSEUDOPOTENTIALS/'
/
&SYSTEM
   ecutwfc          = 40
   ecutrho          = 410
   nosym            = .true.
   occupations      = 'smearing'
   degauss          = 0.02
   smearing         = 'marzari-vanderbilt'
   nspin            = 1
   input_dft        = 'beef-vdw'
   ntyp             = 2
   nat              = 37
   ibrav            = 0
/
&ELECTRONS
   mixing_mode      = 'local-TF'
/
&IONS
/
&CELL
/
&FCP
/
&RISM
/
ATOMIC_SPECIES
Pt 195.084 Pt.pbe-n-kjpaw_psl.1.0.0.UPF
H 1.008 H.pbe-kjpaw_psl.1.0.0.UPF

K_POINTS automatic
5 5 1  0 0 0

CELL_PARAMETERS angstrom
8.46831000000000 0.00000000000000 0.00000000000000
4.23415500000000 7.33377158712180 0.00000000000000
0.00000000000000 0.00000000000000 24.96566199000000

ATOMIC_POSITIONS angstrom
Pt 0.0000000000 0.0000000000 8.5000000000   0 0 0
Pt 2.8284271247 0.0000000000 8.5000000000   0 0 0
Pt 5.6568542495 0.0000000000 8.5000000000   0 0 0
Pt 1.4142135624 2.4494897428 8.5000000000   0 0 0
Pt 4.2426406871 2.4494897428 8.5000000000   0 0 0
Pt 7.0710678119 2.4494897428 8.5000000000   0 0 0
Pt 2.8284271247 4.8989794856 8.5000000000   0 0 0
Pt 5.6568542495 4.8989794856 8.5000000000   0 0 0
Pt 8.4852813742 4.8989794856 8.5000000000   0 0 0
Pt 1.4142135624 0.8164965809 10.8094010768   0 0 0
Pt 4.2426406871 0.8164965809 10.8094010768   0 0 0
Pt 7.0710678119 0.8164965809 10.8094010768   0 0 0
Pt 2.8284271247 3.2659863237 10.8094010768   0 0 0
Pt 5.6568542495 3.2659863237 10.8094010768   0 0 0
Pt 8.4852813742 3.2659863237 10.8094010768   0 0 0
Pt 4.2426406871 5.7154760665 10.8094010768   0 0 0
Pt 7.0710678119 5.7154760665 10.8094010768   0 0 0
Pt 9.8994949366 5.7154760665 10.8094010768   0 0 0
Pt 0.0489696828 1.6350618640 13.1264769766  
Pt 2.8520743365 1.6238455241 13.1004937757  
Pt 5.6846429315 1.6257157531 13.0900395989  
Pt 1.4419183611 4.0578581814 13.1125032500  
Pt 4.2656177743 4.0683203356 13.0930937119  
Pt 7.0889773162 4.0679235391 13.0933904131  
Pt 2.8577694729 6.5157645333 13.0934405183  
Pt 5.6772761799 6.5118423048 13.0971555497  
Pt 8.5019831801 6.5071831342 13.0927566114  
Pt 0.0553339721 -0.0251733852 15.4237477557  
Pt 2.8865766431 -0.0340846847 15.4166970075  
Pt 5.7044392542 -0.0235420919 15.4228480837  
Pt 1.4922146395 2.4167914985 15.5430661529  
Pt 4.3094587202 2.4190660555 15.4144543298  
Pt 7.1157405924 2.4191255828 15.4247013082  
Pt 2.8828646246 4.8757619528 15.4162873722  
Pt 5.7052910376 4.8649454876 15.4194391813  
Pt 8.5272150001 4.8667504922 15.4217139669  
H 1.8641842667 2.3871383561 17.0537935135  

