&CONTROL
   tprnfor          = .true.
   pseudo_dir       = '/users/kbadger1/espresso/pseudo/pslibrary.1.0.0/pbe/PSEUDOPOTENTIALS/'
/
&SYSTEM
   ecutwfc          = 40
   ecutrho          = 410
   nosym            = .true.
   occupations      = 'smearing'
   degauss          = 0.02
   smearing         = 'marzari-vanderbilt'
   nspin            = 1
   input_dft        = 'beef-vdw'
   ntyp             = 3
   nat              = 38
   ibrav            = 0
/
&ELECTRONS
   conv_thr         = 1e-08
   mixing_mode      = 'local-TF'
/
&IONS
/
&CELL
/
&FCP
/
&RISM
/
ATOMIC_SPECIES
Pt 195.084 Pt.pbe-n-kjpaw_psl.1.0.0.UPF
C 12.011 C.pbe-n-kjpaw_psl.1.0.0.UPF
H 1.008 H.pbe-kjpaw_psl.1.0.0.UPF

K_POINTS automatic
5 5 1  0 0 0

CELL_PARAMETERS angstrom
8.48528137423857 0.00000000000000 0.00000000000000
4.24264068711929 7.34846922834953 0.00000000000000
0.00000000000000 0.00000000000000 23.92820323027551

ATOMIC_POSITIONS angstrom
Pt 0.0000000000 0.0000000000 8.5000000000   0 0 0
Pt 2.8284271247 0.0000000000 8.5000000000   0 0 0
Pt 5.6568542495 0.0000000000 8.5000000000   0 0 0
Pt 1.4142135624 2.4494897428 8.5000000000   0 0 0
Pt 4.2426406871 2.4494897428 8.5000000000   0 0 0
Pt 7.0710678119 2.4494897428 8.5000000000   0 0 0
Pt 2.8284271247 4.8989794856 8.5000000000   0 0 0
Pt 5.6568542495 4.8989794856 8.5000000000   0 0 0
Pt 8.4852813742 4.8989794856 8.5000000000   0 0 0
Pt 1.4142135624 0.8164965809 10.8094010768   0 0 0
Pt 4.2426406871 0.8164965809 10.8094010768   0 0 0
Pt 7.0710678119 0.8164965809 10.8094010768   0 0 0
Pt 2.8284271247 3.2659863237 10.8094010768   0 0 0
Pt 5.6568542495 3.2659863237 10.8094010768   0 0 0
Pt 8.4852813742 3.2659863237 10.8094010768   0 0 0
Pt 4.2426406871 5.7154760665 10.8094010768   0 0 0
Pt 7.0710678119 5.7154760665 10.8094010768   0 0 0
Pt 9.8994949366 5.7154760665 10.8094010768   0 0 0
Pt 0.0221823200 1.6383018074 13.1509389664  
Pt 2.8082180634 1.6383292585 13.1512502888  
Pt 5.6577870595 1.6454700679 13.0825701666  
Pt 1.4152063078 4.0531627873 13.1237111544  
Pt 4.2404786253 4.0847400181 13.0752275706  
Pt 7.0751110828 4.0847428628 13.0751904543  
Pt 2.8394266484 6.5474302498 13.0982356653  
Pt 5.6578401625 6.5476022497 13.1147442449  
Pt 8.4760833737 6.5474592788 13.0983806803  
Pt -0.1281133225 -0.0698746284 15.5257437712  
Pt 2.9602101986 -0.0699255894 15.5264647738  
Pt 5.6586739060 0.0184274779 15.4072538843  
Pt 1.4162037050 2.6227596597 15.7835933413  
Pt 4.2616848599 2.4748900353 15.4053076845  
Pt 7.0558668930 2.4749084952 15.4052165668  
Pt 2.8323402426 4.9148217654 15.3887060977  
Pt 5.6587944650 4.8728278668 15.3875730999  
Pt 8.4852120080 4.9148079005 15.3887281631  
C 1.4158643404 0.7386292525 16.2244010605  
H 1.4169568391 2.8763910745 17.3216735134  

