&CONTROL
   tprnfor          = .true.
   pseudo_dir       = '/users/kbadger1/espresso/pseudo/pslibrary.1.0.0/pbe/PSEUDOPOTENTIALS/'
/
&SYSTEM
   ecutwfc          = 40
   ecutrho          = 410
   nosym            = .true.
   occupations      = 'smearing'
   degauss          = 0.02
   smearing         = 'marzari-vanderbilt'
   nspin            = 1
   input_dft        = 'beef-vdw'
   ntyp             = 2
   nat              = 37
   ibrav            = 0
/
&ELECTRONS
   conv_thr         = 1e-08
   mixing_mode      = 'local-TF'
/
&IONS
/
&CELL
/
&FCP
/
&RISM
/
ATOMIC_SPECIES
Pt 195.084 Pt.pbe-n-kjpaw_psl.1.0.0.UPF
H 1.008 H.pbe-kjpaw_psl.1.0.0.UPF

K_POINTS automatic
5 5 1  0 0 0

CELL_PARAMETERS angstrom
8.48528137423857 0.00000000000000 0.00000000000000
4.24264068711929 7.34846922834953 0.00000000000000
0.00000000000000 0.00000000000000 23.92820323027551

ATOMIC_POSITIONS angstrom
Pt 0.0000000000 0.0000000000 8.5000000000   0 0 0
Pt 2.8284271247 0.0000000000 8.5000000000   0 0 0
Pt 5.6568542495 0.0000000000 8.5000000000   0 0 0
Pt 1.4142135624 2.4494897428 8.5000000000   0 0 0
Pt 4.2426406871 2.4494897428 8.5000000000   0 0 0
Pt 7.0710678119 2.4494897428 8.5000000000   0 0 0
Pt 2.8284271247 4.8989794856 8.5000000000   0 0 0
Pt 5.6568542495 4.8989794856 8.5000000000   0 0 0
Pt 8.4852813742 4.8989794856 8.5000000000   0 0 0
Pt 1.4142135624 0.8164965809 10.8094010768   0 0 0
Pt 4.2426406871 0.8164965809 10.8094010768   0 0 0
Pt 7.0710678119 0.8164965809 10.8094010768   0 0 0
Pt 2.8284271247 3.2659863237 10.8094010768   0 0 0
Pt 5.6568542495 3.2659863237 10.8094010768   0 0 0
Pt 8.4852813742 3.2659863237 10.8094010768   0 0 0
Pt 4.2426406871 5.7154760665 10.8094010768   0 0 0
Pt 7.0710678119 5.7154760665 10.8094010768   0 0 0
Pt 9.8994949366 5.7154760665 10.8094010768   0 0 0
Pt 0.0134419555 1.6393464636 13.0988065725  
Pt 2.8320674826 1.6351100385 13.1122620121  
Pt 5.6653751269 1.6363305026 13.0876124481  
Pt 1.4191002151 4.0754078353 13.1040207938  
Pt 4.2497567649 4.0881867428 13.0875583194  
Pt 7.0784990125 4.0867600229 13.0894867961  
Pt 2.8317249184 6.5338513186 13.0813309309  
Pt 5.6690943803 6.5404130619 13.0988225101  
Pt 8.4816330665 6.5397532306 13.1039728689  
Pt -0.0041925989 -0.0023728537 15.4059923458  
Pt 2.8652233772 -0.0008702190 15.4934207877  
Pt 5.6812599201 0.0094657146 15.4159157804  
Pt 1.4318188495 2.4818375626 15.4935520061  
Pt 4.2995763775 2.4824397163 15.4163870015  
Pt 7.0936355318 2.4609728595 15.4181756095  
Pt 2.8488472955 4.9153955810 15.4159655123  
Pt 5.6780450650 4.9127841115 15.4181534663  
Pt 8.5052242796 4.9105181582 15.4200096491  
H 2.3012056448 1.3285893394 16.4993954801  

