&CONTROL
   tprnfor          = .true.
   pseudo_dir       = '/users/kbadger1/espresso/pseudo/pslibrary.1.0.0/pbe/PSEUDOPOTENTIALS/'
/
&SYSTEM
   ecutwfc          = 40
   ecutrho          = 410
   nosym            = .true.
   occupations      = 'smearing'
   degauss          = 0.02
   smearing         = 'marzari-vanderbilt'
   nspin            = 1
   input_dft        = 'beef-vdw'
   ntyp             = 2
   nat              = 37
   ibrav            = 0
/
&ELECTRONS
   mixing_mode      = 'local-TF'
/
&IONS
/
&CELL
/
&FCP
/
&RISM
/
ATOMIC_SPECIES
Pt 195.084 Pt.pbe-n-kjpaw_psl.1.0.0.UPF
H 1.008 H.pbe-kjpaw_psl.1.0.0.UPF

K_POINTS automatic
5 5 1  0 0 0

CELL_PARAMETERS angstrom
8.46831000000000 0.00000000000000 0.00000000000000
4.23415500000000 7.33377158712180 0.00000000000000
0.00000000000000 0.00000000000000 24.96566199000000

ATOMIC_POSITIONS angstrom
Pt 0.0000000000 0.0000000000 8.5000000000   0 0 0
Pt 2.8284271247 0.0000000000 8.5000000000   0 0 0
Pt 5.6568542495 0.0000000000 8.5000000000   0 0 0
Pt 1.4142135624 2.4494897428 8.5000000000   0 0 0
Pt 4.2426406871 2.4494897428 8.5000000000   0 0 0
Pt 7.0710678119 2.4494897428 8.5000000000   0 0 0
Pt 2.8284271247 4.8989794856 8.5000000000   0 0 0
Pt 5.6568542495 4.8989794856 8.5000000000   0 0 0
Pt 8.4852813742 4.8989794856 8.5000000000   0 0 0
Pt 1.4142135624 0.8164965809 10.8094010768   0 0 0
Pt 4.2426406871 0.8164965809 10.8094010768   0 0 0
Pt 7.0710678119 0.8164965809 10.8094010768   0 0 0
Pt 2.8284271247 3.2659863237 10.8094010768   0 0 0
Pt 5.6568542495 3.2659863237 10.8094010768   0 0 0
Pt 8.4852813742 3.2659863237 10.8094010768   0 0 0
Pt 4.2426406871 5.7154760665 10.8094010768   0 0 0
Pt 7.0710678119 5.7154760665 10.8094010768   0 0 0
Pt 9.8994949366 5.7154760665 10.8094010768   0 0 0
Pt 0.0334225611 1.6407866216 13.1150294604  
Pt 2.8454320616 1.6314803909 13.1100814523  
Pt 5.6681095427 1.6340911888 13.0980826638  
Pt 1.4329658994 4.0646702708 13.1146849752  
Pt 4.2569228988 4.0737001556 13.0976187747  
Pt 7.0807230471 4.0766091869 13.0928017340  
Pt 2.8475896064 6.5216680567 13.0922618863  
Pt 5.6718222035 6.5227010715 13.1013607703  
Pt 8.4903868282 6.5206643896 13.1010779351  
Pt 0.0313850201 -0.0097204475 15.4225948237  
Pt 2.8756935461 -0.0271826559 15.4555313393  
Pt 5.6906634384 -0.0066090943 15.4284923948  
Pt 1.4605499371 2.4353422346 15.5196820223  
Pt 4.3011763822 2.4416329260 15.4521445670  
Pt 7.0973429466 2.4389428388 15.4288088396  
Pt 2.8636123750 4.8942337757 15.4211673587  
Pt 5.6870428725 4.8841961217 15.4258681881  
Pt 8.5092581967 4.8849877794 15.4292808698  
H 2.3994096662 1.8846339157 16.7074983556  

