&CONTROL
   tprnfor          = .true.
   pseudo_dir       = '/users/kbadger1/espresso/pseudo/pslibrary.1.0.0/pbe/PSEUDOPOTENTIALS/'
/
&SYSTEM
   ecutwfc          = 40
   ecutrho          = 410
   nosym            = .true.
   occupations      = 'smearing'
   degauss          = 0.001
   smearing         = 'marzari-vanderbilt'
   nspin            = 1
   input_dft        = 'beef-vdw'
   ntyp             = 3
   nat              = 39
   ibrav            = 0
/
&ELECTRONS
   mixing_mode      = 'local-TF'
/
&IONS
/
&CELL
/
&FCP
/
&RISM
/
ATOMIC_SPECIES
Pt 195.084 Pt.pbe-n-kjpaw_psl.1.0.0.UPF
O 15.999 O.pbe-nl-kjpaw_psl.1.0.0.UPF
H 1.008 H.pbe-kjpaw_psl.1.0.0.UPF

K_POINTS automatic
5 5 1  0 0 0

CELL_PARAMETERS angstrom
8.48528137423857 0.00000000000000 0.00000000000000
4.24264068711929 7.34846922834953 0.00000000000000
0.00000000000000 0.00000000000000 23.92820323027551

ATOMIC_POSITIONS angstrom
Pt 0.0000000000 0.0000000000 8.5000000000   0 0 0
Pt 2.8284271247 0.0000000000 8.5000000000   0 0 0
Pt 5.6568542495 0.0000000000 8.5000000000   0 0 0
Pt 1.4142135624 2.4494897428 8.5000000000   0 0 0
Pt 4.2426406871 2.4494897428 8.5000000000   0 0 0
Pt 7.0710678119 2.4494897428 8.5000000000   0 0 0
Pt 2.8284271247 4.8989794856 8.5000000000   0 0 0
Pt 5.6568542495 4.8989794856 8.5000000000   0 0 0
Pt 8.4852813742 4.8989794856 8.5000000000   0 0 0
Pt 1.4142135624 0.8164965809 10.8094010768   0 0 0
Pt 4.2426406871 0.8164965809 10.8094010768   0 0 0
Pt 7.0710678119 0.8164965809 10.8094010768   0 0 0
Pt 2.8284271247 3.2659863237 10.8094010768   0 0 0
Pt 5.6568542495 3.2659863237 10.8094010768   0 0 0
Pt 8.4852813742 3.2659863237 10.8094010768   0 0 0
Pt 4.2426406871 5.7154760665 10.8094010768   0 0 0
Pt 7.0710678119 5.7154760665 10.8094010768   0 0 0
Pt 9.8994949366 5.7154760665 10.8094010768   0 0 0
Pt -0.0636339714 1.6856967185 13.0880423888  
Pt 2.7649089850 1.7000314679 13.1239659900  
Pt 5.5883987307 1.6862695627 13.1201402926  
Pt 1.3422398848 4.1462052720 13.1099506202  
Pt 4.1597710610 4.1087048905 13.1660743805  
Pt 7.0034804269 4.1454128642 13.0957735113  
Pt 2.7507265882 6.5908926655 13.1170217866  
Pt 5.5766507456 6.5809289324 13.0819523097  
Pt 8.4222815686 6.5979868871 13.1150161397  
Pt -0.1436994702 0.1227622505 15.4397103231  
Pt 2.6616779536 0.0946425260 15.3988684105  
Pt 5.5217379720 0.1145919095 15.5351561116  
Pt 1.2565732807 2.5752282789 15.4274516998  
Pt 4.0994154121 2.6127662089 15.5343519134  
Pt 6.9566653913 2.5781046532 15.4082989974  
Pt 2.6733385475 5.0501172403 15.4657760625  
Pt 5.5237392654 5.0368377873 15.4378651040  
Pt 8.3444620336 5.0222513265 15.4474109996  
O 4.2451059505 2.0863035367 17.5569941103  
H 4.9442230881 2.6538381641 17.9269623409  
H 5.0633415621 0.7738902529 16.9468003393  

