&CONTROL
   tprnfor          = .true.
   pseudo_dir       = '/users/kbadger1/espresso/pseudo/pslibrary.1.0.0/pbe/PSEUDOPOTENTIALS/'
/
&SYSTEM
   ecutwfc          = 40
   ecutrho          = 410
   nosym            = .true.
   occupations      = 'smearing'
   degauss          = 0.02
   smearing         = 'marzari-vanderbilt'
   nspin            = 1
   input_dft        = 'beef-vdw'
   ntyp             = 3
   nat              = 39
   ibrav            = 0
/
&ELECTRONS
   mixing_mode      = 'local-TF'
/
&IONS
/
&CELL
/
&FCP
/
&RISM
/
ATOMIC_SPECIES
Pt 195.084 Pt.pbe-n-kjpaw_psl.1.0.0.UPF
O 15.999 O.pbe-nl-kjpaw_psl.1.0.0.UPF
H 1.008 H.pbe-kjpaw_psl.1.0.0.UPF

K_POINTS automatic
5 5 1  0 0 0

CELL_PARAMETERS angstrom
8.48528137423857 0.00000000000000 0.00000000000000
4.24264068711929 7.34846922834953 0.00000000000000
0.00000000000000 0.00000000000000 23.92820323027551

ATOMIC_POSITIONS angstrom
Pt 0.0000000000 0.0000000000 8.5000000000   0 0 0
Pt 2.8284271247 0.0000000000 8.5000000000   0 0 0
Pt 5.6568542495 0.0000000000 8.5000000000   0 0 0
Pt 1.4142135624 2.4494897428 8.5000000000   0 0 0
Pt 4.2426406871 2.4494897428 8.5000000000   0 0 0
Pt 7.0710678119 2.4494897428 8.5000000000   0 0 0
Pt 2.8284271247 4.8989794856 8.5000000000   0 0 0
Pt 5.6568542495 4.8989794856 8.5000000000   0 0 0
Pt 8.4852813742 4.8989794856 8.5000000000   0 0 0
Pt 1.4142135624 0.8164965809 10.8094010768   0 0 0
Pt 4.2426406871 0.8164965809 10.8094010768   0 0 0
Pt 7.0710678119 0.8164965809 10.8094010768   0 0 0
Pt 2.8284271247 3.2659863237 10.8094010768   0 0 0
Pt 5.6568542495 3.2659863237 10.8094010768   0 0 0
Pt 8.4852813742 3.2659863237 10.8094010768   0 0 0
Pt 4.2426406871 5.7154760665 10.8094010768   0 0 0
Pt 7.0710678119 5.7154760665 10.8094010768   0 0 0
Pt 9.8994949366 5.7154760665 10.8094010768   0 0 0
Pt -0.0169969194 1.6506413418 13.0764804178  
Pt 2.8189255641 1.6621488743 13.1120149672  
Pt 5.6373636501 1.6454044388 13.1093340214  
Pt 1.3921721091 4.1091247451 13.0934457392  
Pt 4.2141155556 4.0758375422 13.1453278998  
Pt 7.0515467033 4.1056880014 13.0865741457  
Pt 2.7967916989 6.5552481900 13.1043031049  
Pt 5.6295781111 6.5501636463 13.0721067188  
Pt 8.4747802828 6.5595424526 13.1032360409  
Pt -0.0569385914 0.0537845545 15.4168979007  
Pt 2.7534865213 0.0313935405 15.3866320111  
Pt 5.6025310391 0.0555338587 15.5311409912  
Pt 1.3519502175 2.5062864808 15.4014102414  
Pt 4.1929997017 2.5382167506 15.5170855538  
Pt 7.0465838903 2.5069796439 15.3887501501  
Pt 2.7632534785 4.9823713118 15.4315987785  
Pt 5.6141065198 4.9714851646 15.4129688083  
Pt 8.4385558165 4.9572150384 15.4252376072  
O 4.3347731728 2.0630003295 17.5526812371  
H 5.0490551539 2.6165935134 17.9153203248  
H 5.1455765885 0.7221011502 16.9408494107  

