&CONTROL
   tprnfor          = .true.
   pseudo_dir       = '/users/kbadger1/espresso/pseudo/pslibrary.1.0.0/pbe/PSEUDOPOTENTIALS/'
/
&SYSTEM
   ecutwfc          = 40
   ecutrho          = 410
   nosym            = .true.
   occupations      = 'smearing'
   degauss          = 0.001
   smearing         = 'marzari-vanderbilt'
   nspin            = 1
   input_dft        = 'beef-vdw'
   ntyp             = 3
   nat              = 39
   ibrav            = 0
/
&ELECTRONS
   mixing_mode      = 'local-TF'
/
&IONS
/
&CELL
/
&FCP
/
&RISM
/
ATOMIC_SPECIES
Pt 195.084 Pt.pbe-n-kjpaw_psl.1.0.0.UPF
O 15.999 O.pbe-nl-kjpaw_psl.1.0.0.UPF
H 1.008 H.pbe-kjpaw_psl.1.0.0.UPF

K_POINTS automatic
5 5 1  0 0 0

CELL_PARAMETERS angstrom
8.48528137423857 0.00000000000000 0.00000000000000
4.24264068711929 7.34846922834953 0.00000000000000
0.00000000000000 0.00000000000000 23.92820323027551

ATOMIC_POSITIONS angstrom
Pt 0.0000000000 0.0000000000 8.5000000000   0 0 0
Pt 2.8284271247 0.0000000000 8.5000000000   0 0 0
Pt 5.6568542495 0.0000000000 8.5000000000   0 0 0
Pt 1.4142135624 2.4494897428 8.5000000000   0 0 0
Pt 4.2426406871 2.4494897428 8.5000000000   0 0 0
Pt 7.0710678119 2.4494897428 8.5000000000   0 0 0
Pt 2.8284271247 4.8989794856 8.5000000000   0 0 0
Pt 5.6568542495 4.8989794856 8.5000000000   0 0 0
Pt 8.4852813742 4.8989794856 8.5000000000   0 0 0
Pt 1.4142135624 0.8164965809 10.8094010768   0 0 0
Pt 4.2426406871 0.8164965809 10.8094010768   0 0 0
Pt 7.0710678119 0.8164965809 10.8094010768   0 0 0
Pt 2.8284271247 3.2659863237 10.8094010768   0 0 0
Pt 5.6568542495 3.2659863237 10.8094010768   0 0 0
Pt 8.4852813742 3.2659863237 10.8094010768   0 0 0
Pt 4.2426406871 5.7154760665 10.8094010768   0 0 0
Pt 7.0710678119 5.7154760665 10.8094010768   0 0 0
Pt 9.8994949366 5.7154760665 10.8094010768   0 0 0
Pt -0.0634758321 1.6803981513 13.0866935829  
Pt 2.7698603113 1.6960496087 13.1272583019  
Pt 5.5870003078 1.6809278818 13.1217348160  
Pt 1.3451099313 4.1411555145 13.1077253260  
Pt 4.1625331839 4.1039791913 13.1696570975  
Pt 7.0041490185 4.1375221555 13.0963597839  
Pt 2.7510935276 6.5859842472 13.1180445052  
Pt 5.5784566899 6.5765984110 13.0820086963  
Pt 8.4233577849 6.5914277906 13.1127470356  
Pt -0.1421084775 0.1154218755 15.4384032625  
Pt 2.6648250697 0.0886958633 15.4004922970  
Pt 5.5200444506 0.1079810534 15.5363788251  
Pt 1.2614241736 2.5658439143 15.4227554234  
Pt 4.1040780218 2.6065743600 15.5509293962  
Pt 6.9581180490 2.5670436969 15.4091265124  
Pt 2.6753406236 5.0418301673 15.4628942741  
Pt 5.5280132506 5.0306180455 15.4364808973  
Pt 8.3482748424 5.0133254006 15.4427266998  
O 4.2278389756 2.1272668982 17.5748084924  
H 4.9516285928 2.6680740463 17.9374239364  
H 5.0557589313 0.7279509882 16.9457503044  

