&CONTROL
   tprnfor          = .true.
   pseudo_dir       = '/users/kbadger1/espresso/pseudo/pslibrary.1.0.0/pbe/PSEUDOPOTENTIALS/'
/
&SYSTEM
   ecutwfc          = 40
   ecutrho          = 410
   nosym            = .true.
   occupations      = 'smearing'
   degauss          = 0.001
   smearing         = 'marzari-vanderbilt'
   nspin            = 1
   input_dft        = 'beef-vdw'
   ntyp             = 3
   nat              = 39
   ibrav            = 0
/
&ELECTRONS
   mixing_mode      = 'local-TF'
/
&IONS
/
&CELL
/
&FCP
/
&RISM
/
ATOMIC_SPECIES
Pt 195.084 Pt.pbe-n-kjpaw_psl.1.0.0.UPF
O 15.999 O.pbe-nl-kjpaw_psl.1.0.0.UPF
H 1.008 H.pbe-kjpaw_psl.1.0.0.UPF

K_POINTS automatic
5 5 1  0 0 0

CELL_PARAMETERS angstrom
8.48528137423857 0.00000000000000 0.00000000000000
4.24264068711929 7.34846922834953 0.00000000000000
0.00000000000000 0.00000000000000 23.92820323027551

ATOMIC_POSITIONS angstrom
Pt 0.0000000000 0.0000000000 8.5000000000   0 0 0
Pt 2.8284271247 0.0000000000 8.5000000000   0 0 0
Pt 5.6568542495 0.0000000000 8.5000000000   0 0 0
Pt 1.4142135624 2.4494897428 8.5000000000   0 0 0
Pt 4.2426406871 2.4494897428 8.5000000000   0 0 0
Pt 7.0710678119 2.4494897428 8.5000000000   0 0 0
Pt 2.8284271247 4.8989794856 8.5000000000   0 0 0
Pt 5.6568542495 4.8989794856 8.5000000000   0 0 0
Pt 8.4852813742 4.8989794856 8.5000000000   0 0 0
Pt 1.4142135624 0.8164965809 10.8094010768   0 0 0
Pt 4.2426406871 0.8164965809 10.8094010768   0 0 0
Pt 7.0710678119 0.8164965809 10.8094010768   0 0 0
Pt 2.8284271247 3.2659863237 10.8094010768   0 0 0
Pt 5.6568542495 3.2659863237 10.8094010768   0 0 0
Pt 8.4852813742 3.2659863237 10.8094010768   0 0 0
Pt 4.2426406871 5.7154760665 10.8094010768   0 0 0
Pt 7.0710678119 5.7154760665 10.8094010768   0 0 0
Pt 9.8994949366 5.7154760665 10.8094010768   0 0 0
Pt -0.0657771636 1.6832758281 13.0867139348  
Pt 2.7738149147 1.6997388705 13.1409091123  
Pt 5.5775764487 1.6831184151 13.1425149548  
Pt 1.3455955559 4.1406008477 13.1021372517  
Pt 4.1685086643 4.1231448373 13.1418057573  
Pt 7.0063769328 4.1380281061 13.0945096486  
Pt 2.7489960289 6.5974674389 13.1155416800  
Pt 5.5855399917 6.5863608919 13.0853392100  
Pt 8.4238438679 6.5958366194 13.1222973886  
Pt -0.1315190728 0.1088850178 15.4377646242  
Pt 2.6726506443 0.0904557307 15.4194576920  
Pt 5.5264950323 0.0936802371 15.5417784194  
Pt 1.2543361164 2.5600977042 15.4192924662  
Pt 4.1041200935 2.5742317379 15.5509409704  
Pt 6.9523987587 2.5593632888 15.4148156112  
Pt 2.6825655065 5.0275741577 15.4333877991  
Pt 5.5304935258 5.0234244293 15.4234494290  
Pt 8.3452724468 5.0046484710 15.4375400499  
O 4.0158600415 2.5534250764 17.5615894266  
H 4.9285619435 2.6427987836 17.8832267804  
H 5.3906628346 0.1792800968 17.0881190360  

