&CONTROL
   tprnfor          = .true.
   pseudo_dir       = '/users/kbadger1/espresso/pseudo/pslibrary.1.0.0/pbe/PSEUDOPOTENTIALS/'
/
&SYSTEM
   ecutwfc          = 40
   ecutrho          = 410
   nosym            = .true.
   occupations      = 'smearing'
   degauss          = 0.02
   smearing         = 'marzari-vanderbilt'
   nspin            = 1
   input_dft        = 'beef-vdw'
   ntyp             = 3
   nat              = 39
   ibrav            = 0
/
&ELECTRONS
   conv_thr         = 1e-08
   mixing_mode      = 'local-TF'
/
&IONS
/
&CELL
/
&FCP
/
&RISM
/
ATOMIC_SPECIES
Pt 195.084 Pt.pbe-n-kjpaw_psl.1.0.0.UPF
O 15.999 O.pbe-nl-kjpaw_psl.1.0.0.UPF
H 1.008 H.pbe-kjpaw_psl.1.0.0.UPF

K_POINTS automatic
5 5 1  0 0 0

CELL_PARAMETERS angstrom
8.48528137423857 0.00000000000000 0.00000000000000
4.24264068711929 7.34846922834953 0.00000000000000
0.00000000000000 0.00000000000000 23.92820323027551

ATOMIC_POSITIONS angstrom
Pt 0.0000000000 0.0000000000 8.5000000000   0 0 0
Pt 2.8284271247 0.0000000000 8.5000000000   0 0 0
Pt 5.6568542495 0.0000000000 8.5000000000   0 0 0
Pt 1.4142135624 2.4494897428 8.5000000000   0 0 0
Pt 4.2426406871 2.4494897428 8.5000000000   0 0 0
Pt 7.0710678119 2.4494897428 8.5000000000   0 0 0
Pt 2.8284271247 4.8989794856 8.5000000000   0 0 0
Pt 5.6568542495 4.8989794856 8.5000000000   0 0 0
Pt 8.4852813742 4.8989794856 8.5000000000   0 0 0
Pt 1.4142135624 0.8164965809 10.8094010768   0 0 0
Pt 4.2426406871 0.8164965809 10.8094010768   0 0 0
Pt 7.0710678119 0.8164965809 10.8094010768   0 0 0
Pt 2.8284271247 3.2659863237 10.8094010768   0 0 0
Pt 5.6568542495 3.2659863237 10.8094010768   0 0 0
Pt 8.4852813742 3.2659863237 10.8094010768   0 0 0
Pt 4.2426406871 5.7154760665 10.8094010768   0 0 0
Pt 7.0710678119 5.7154760665 10.8094010768   0 0 0
Pt 9.8994949366 5.7154760665 10.8094010768   0 0 0
Pt -0.0106280405 1.6482661772 13.0757861419  
Pt 2.8301031309 1.6556048062 13.1166154911  
Pt 5.6348619863 1.6470880424 13.1317022060  
Pt 1.4041579488 4.1010818584 13.0856217136  
Pt 4.2292486638 4.0843927536 13.1233361266  
Pt 7.0618662427 4.0990503120 13.0829087864  
Pt 2.8054509860 6.5595181063 13.0991785057  
Pt 5.6436370913 6.5496293927 13.0724728946  
Pt 8.4835278546 6.5551696991 13.1038087678  
Pt -0.0195893766 0.0381332545 15.4134608678  
Pt 2.7879353318 0.0216229480 15.3958790455  
Pt 5.6355727223 0.0273495430 15.5203511166  
Pt 1.3724247210 2.4881455730 15.3940954282  
Pt 4.2301344922 2.5053174981 15.5243913460  
Pt 7.0666812296 2.4905310263 15.3991340038  
Pt 2.7976666598 4.9577577998 15.4033555032  
Pt 5.6428713014 4.9554759621 15.4057257808  
Pt 8.4568467598 4.9341014733 15.4141741722  
O 4.1107565984 2.4665057814 17.5334210933  
H 4.9958921358 2.6824852757 17.8733177653  
H 5.5187664863 0.1194054716 17.0675047191  

