Pt H 
 1.0000000000000000
     8.4683100000000007    0.0000000000000000    0.0000000000000000
     4.2341550000000012    7.3337715871217997    0.0000000000000000
     0.0000000000000000    0.0000000000000000   24.9656619900000010
 Pt  H  
  36   1
Selective dynamics
Cartesian
  0.0000000000000000  0.0000000000000000  8.5000000000000000   F   F   F
  2.8284271247461903  0.0000000000000000  8.5000000000000000   F   F   F
  5.6568542494923806  0.0000000000000000  8.5000000000000000   F   F   F
  1.4142135623730951  2.4494897427831779  8.5000000000000000   F   F   F
  4.2426406871192857  2.4494897427831779  8.5000000000000000   F   F   F
  7.0710678118654755  2.4494897427831779  8.5000000000000000   F   F   F
  2.8284271247461903  4.8989794855663558  8.5000000000000000   F   F   F
  5.6568542494923806  4.8989794855663558  8.5000000000000000   F   F   F
  8.4852813742385713  4.8989794855663558  8.5000000000000000   F   F   F
  1.4142135623730951  0.8164965809277259 10.8094010767585029   F   F   F
  4.2426406871192848  0.8164965809277259 10.8094010767585029   F   F   F
  7.0710678118654755  0.8164965809277259 10.8094010767585029   F   F   F
  2.8284271247461903  3.2659863237109037 10.8094010767585029   F   F   F
  5.6568542494923806  3.2659863237109037 10.8094010767585029   F   F   F
  8.4852813742385713  3.2659863237109037 10.8094010767585029   F   F   F
  4.2426406871192857  5.7154760664940820 10.8094010767585029   F   F   F
  7.0710678118654755  5.7154760664940820 10.8094010767585029   F   F   F
  9.8994949366116671  5.7154760664940820 10.8094010767585029   F   F   F
  0.0124381632885120  1.6554260762518751 13.1158618996002012   T   T   T
  2.8224640961080678  1.6454592403564390 13.1332875075933551   T   T   T
  5.6366000089851260  1.6515511093540856 13.1093341041057467   T   T   T
  1.4132550877636711  4.0785893052211577 13.1101490493030290   T   T   T
  4.2300665196259510  4.0780791131646517 13.1028634626563214   T   T   T
  7.0568000590759095  4.0869917644503868 13.0877952731185179   T   T   T
  2.8243850450446448  6.5385909727059541 13.0835236625926488   T   T   T
  5.6446919342041308  6.5321756216266440 13.0913170418220961   T   T   T
  8.4700393565620704  6.5295301473305702 13.0895920810542759   T   T   T
 -0.0184334382635786  0.0066133951287118 15.4181620653626688   T   T   T
  2.8143122981353721 -0.0328173148483601 15.4298107467474637   T   T   T
  5.6374747649688191  0.0099421697309164 15.4167303553867328   T   T   T
  1.3730233326901919  2.4470638816055335 15.5219222176148204   T   T   T
  4.2274296435849701  2.4446499407064035 15.5146588052620693   T   T   T
  7.0407807414564916  2.4585994135476916 15.4256000060369818   T   T   T
  2.8108139564138317  4.9234448656290350 15.4106383849319784   T   T   T
  5.6307624285067712  4.8955282583028783 15.4146013083024229   T   T   T
  8.4572862862562772  4.8967388630400404 15.4185053406535566   T   T   T
  2.7028228981261107  2.1589847255344057 16.5439752378459097   T   T   T
