&CONTROL
   tprnfor          = .true.
   pseudo_dir       = '/users/kbadger1/espresso/pseudo/pslibrary.1.0.0/pbe/PSEUDOPOTENTIALS/'
/
&SYSTEM
   ecutwfc          = 40
   ecutrho          = 410
   nosym            = .true.
   occupations      = 'smearing'
   degauss          = 0.02
   smearing         = 'marzari-vanderbilt'
   nspin            = 1
   input_dft        = 'beef-vdw'
   ntyp             = 2
   nat              = 37
   ibrav            = 0
/
&ELECTRONS
   mixing_mode      = 'local-TF'
/
&IONS
/
&CELL
/
&FCP
/
&RISM
/
ATOMIC_SPECIES
Pt 195.084 Pt.pbe-n-kjpaw_psl.1.0.0.UPF
H 1.008 H.pbe-kjpaw_psl.1.0.0.UPF

K_POINTS automatic
5 5 1  0 0 0

CELL_PARAMETERS angstrom
8.46831000000000 0.00000000000000 0.00000000000000
4.23415500000000 7.33377158712180 0.00000000000000
0.00000000000000 0.00000000000000 24.96566199000000

ATOMIC_POSITIONS angstrom
Pt 0.0000000000 0.0000000000 8.5000000000   0 0 0
Pt 2.8284271247 0.0000000000 8.5000000000   0 0 0
Pt 5.6568542495 0.0000000000 8.5000000000   0 0 0
Pt 1.4142135624 2.4494897428 8.5000000000   0 0 0
Pt 4.2426406871 2.4494897428 8.5000000000   0 0 0
Pt 7.0710678119 2.4494897428 8.5000000000   0 0 0
Pt 2.8284271247 4.8989794856 8.5000000000   0 0 0
Pt 5.6568542495 4.8989794856 8.5000000000   0 0 0
Pt 8.4852813742 4.8989794856 8.5000000000   0 0 0
Pt 1.4142135624 0.8164965809 10.8094010768   0 0 0
Pt 4.2426406871 0.8164965809 10.8094010768   0 0 0
Pt 7.0710678119 0.8164965809 10.8094010768   0 0 0
Pt 2.8284271247 3.2659863237 10.8094010768   0 0 0
Pt 5.6568542495 3.2659863237 10.8094010768   0 0 0
Pt 8.4852813742 3.2659863237 10.8094010768   0 0 0
Pt 4.2426406871 5.7154760665 10.8094010768   0 0 0
Pt 7.0710678119 5.7154760665 10.8094010768   0 0 0
Pt 9.8994949366 5.7154760665 10.8094010768   0 0 0
Pt 0.0173411744 1.6172286919 13.1088064669  
Pt 2.8295057666 1.6161546095 13.1059662413  
Pt 5.6579432122 1.6152098760 13.0902528923  
Pt 1.4242285763 4.0352535735 13.1311674801  
Pt 4.2452190798 4.0593763134 13.0934362649  
Pt 7.0708023484 4.0596737932 13.0926474230  
Pt 2.8350765273 6.4987252865 13.0947759529  
Pt 5.6584704493 6.5041244002 13.0963148385  
Pt 8.4836536822 6.4978505091 13.0912056597  
Pt 0.0022180786 -0.0522253751 15.4190347752  
Pt 2.8483615486 -0.0520644175 15.4170850310  
Pt 5.6587966526 -0.0419335263 15.4239637046  
Pt 1.4251479795 2.3835460192 15.5446287084  
Pt 4.2522040540 2.4025818131 15.4195584877  
Pt 7.0659565304 2.4027810368 15.4202490417  
Pt 2.8355000793 4.8479214452 15.4288314184  
Pt 5.6592485784 4.8443890859 15.4209259729  
Pt 8.4827157565 4.8482600570 15.4278007980  
H 1.4258898243 1.9932916292 17.0527087350  

