Pt H 
 1.0000000000000000
     8.4683100000000007    0.0000000000000000    0.0000000000000000
     4.2341550000000012    7.3337715871217997    0.0000000000000000
     0.0000000000000000    0.0000000000000000   24.9656619900000010
 Pt  H  
  36   1
Selective dynamics
Cartesian
  0.0000000000000000  0.0000000000000000  8.5000000000000000   F   F   F
  2.8284271247461903  0.0000000000000000  8.5000000000000000   F   F   F
  5.6568542494923806  0.0000000000000000  8.5000000000000000   F   F   F
  1.4142135623730951  2.4494897427831779  8.5000000000000000   F   F   F
  4.2426406871192857  2.4494897427831779  8.5000000000000000   F   F   F
  7.0710678118654755  2.4494897427831779  8.5000000000000000   F   F   F
  2.8284271247461903  4.8989794855663558  8.5000000000000000   F   F   F
  5.6568542494923806  4.8989794855663558  8.5000000000000000   F   F   F
  8.4852813742385713  4.8989794855663558  8.5000000000000000   F   F   F
  1.4142135623730951  0.8164965809277259 10.8094010767585029   F   F   F
  4.2426406871192848  0.8164965809277259 10.8094010767585029   F   F   F
  7.0710678118654755  0.8164965809277259 10.8094010767585029   F   F   F
  2.8284271247461903  3.2659863237109037 10.8094010767585029   F   F   F
  5.6568542494923806  3.2659863237109037 10.8094010767585029   F   F   F
  8.4852813742385713  3.2659863237109037 10.8094010767585029   F   F   F
  4.2426406871192857  5.7154760664940820 10.8094010767585029   F   F   F
  7.0710678118654755  5.7154760664940820 10.8094010767585029   F   F   F
  9.8994949366116671  5.7154760664940820 10.8094010767585029   F   F   F
  0.0162241621723322  1.6513527829495482 13.1121016713648153   T   T   T
  2.8314510517764386  1.6462076974519977 13.1194961493109616   T   T   T
  5.6586285525549798  1.6478003429257408 13.0860342598969428   T   T   T
  1.4230278725229257  4.0828583054536285 13.1083532422971452   T   T   T
  4.2458658676677370  4.0965313509238799 13.0851454110506182   T   T   T
  7.0716429002502439  4.0963894550937292 13.0885699385799246   T   T   T
  2.8345435143447526  6.5383845882466787 13.0943990032018895   T   T   T
  5.6607303632412913  6.5449929152671880 13.1087011837051630   T   T   T
  8.4740379415407752  6.5404981805482514 13.1072930354919013   T   T   T
 -0.0210526053681489  0.0101841362949800 15.4385263189260513   T   T   T
  2.8678356651505847  0.0080244295273714 15.4853615300133320   T   T   T
  5.6629568441536744  0.0316436758954980 15.4239711364237202   T   T   T
  1.4255999434531386  2.5020493571827966 15.4921261434181972   T   T   T
  4.2705792338636650  2.4876714410401575 15.4153019290943387   T   T   T
  7.0607448629646807  2.4797703707274943 15.4184917797723227   T   T   T
  2.8395200008129189  4.9191376578035753 15.4259187053395941   T   T   T
  5.6590393200858946  4.9086884108011688 15.4154696628725780   T   T   T
  8.4839935518734038  4.9156854521160964 15.4269661380828271   T   T   T
  1.7158517336419448  1.0060401875044613 16.4095322039647513   T   T   T
