&CONTROL
   tprnfor          = .true.
   pseudo_dir       = '/users/kbadger1/espresso/pseudo/pslibrary.1.0.0/pbe/PSEUDOPOTENTIALS/'
/
&SYSTEM
   ecutwfc          = 40
   ecutrho          = 410
   nosym            = .true.
   occupations      = 'smearing'
   degauss          = 0.001
   smearing         = 'marzari-vanderbilt'
   nspin            = 1
   input_dft        = 'beef-vdw'
   ntyp             = 3
   nat              = 38
   ibrav            = 0
/
&ELECTRONS
   conv_thr         = 1e-08
   mixing_mode      = 'local-TF'
/
&IONS
/
&CELL
/
&FCP
/
&RISM
/
ATOMIC_SPECIES
Pt 195.084 Pt.pbe-n-kjpaw_psl.1.0.0.UPF
C 12.011 C.pbe-n-kjpaw_psl.1.0.0.UPF
H 1.008 H.pbe-kjpaw_psl.1.0.0.UPF

K_POINTS automatic
5 5 1  0 0 0

CELL_PARAMETERS angstrom
8.48528137423857 0.00000000000000 0.00000000000000
4.24264068711929 7.34846922834953 0.00000000000000
0.00000000000000 0.00000000000000 23.92820323027551

ATOMIC_POSITIONS angstrom
Pt 0.0000000000 0.0000000000 8.5000000000   0 0 0
Pt 2.8284271247 0.0000000000 8.5000000000   0 0 0
Pt 5.6568542495 0.0000000000 8.5000000000   0 0 0
Pt 1.4142135624 2.4494897428 8.5000000000   0 0 0
Pt 4.2426406871 2.4494897428 8.5000000000   0 0 0
Pt 7.0710678119 2.4494897428 8.5000000000   0 0 0
Pt 2.8284271247 4.8989794856 8.5000000000   0 0 0
Pt 5.6568542495 4.8989794856 8.5000000000   0 0 0
Pt 8.4852813742 4.8989794856 8.5000000000   0 0 0
Pt 1.4142135624 0.8164965809 10.8094010768   0 0 0
Pt 4.2426406871 0.8164965809 10.8094010768   0 0 0
Pt 7.0710678119 0.8164965809 10.8094010768   0 0 0
Pt 2.8284271247 3.2659863237 10.8094010768   0 0 0
Pt 5.6568542495 3.2659863237 10.8094010768   0 0 0
Pt 8.4852813742 3.2659863237 10.8094010768   0 0 0
Pt 4.2426406871 5.7154760665 10.8094010768   0 0 0
Pt 7.0710678119 5.7154760665 10.8094010768   0 0 0
Pt 9.8994949366 5.7154760665 10.8094010768   0 0 0
Pt 0.0254117691 1.6353469372 13.1689386801  
Pt 2.8030147143 1.6353402741 13.1689297837  
Pt 5.6568607755 1.6460447628 13.0868377729  
Pt 1.4142028386 4.0536196946 13.1311687421  
Pt 4.2382296850 4.0833091773 13.0757877814  
Pt 7.0754946683 4.0833096903 13.0757982419  
Pt 2.8400646709 6.5508720517 13.1116737804  
Pt 5.6568587388 6.5468050758 13.1297717274  
Pt 8.4736431186 6.5508631379 13.1116676406  
Pt -0.1285592638 -0.0725111414 15.5565568896  
Pt 2.9569797774 -0.0725018978 15.5565348619  
Pt 5.6568524145 0.0171951042 15.4246490062  
Pt 1.4142036561 2.6213087943 15.8004373328  
Pt 4.2610639139 2.4712085866 15.4046074129  
Pt 7.0526435043 2.4712150447 15.4046147952  
Pt 2.8345616964 4.9113598802 15.3995520446  
Pt 5.6568582043 4.8709877455 15.3855847924  
Pt 8.4791448406 4.9113665047 15.3995487690  
C 1.4142131568 0.7400702201 16.2506012275  
H 1.4141728434 2.9176824874 17.3306874640  

