&CONTROL
   tprnfor          = .true.
   pseudo_dir       = '/users/kbadger1/espresso/pseudo/pslibrary.1.0.0/pbe/PSEUDOPOTENTIALS/'
/
&SYSTEM
   ecutwfc          = 40
   ecutrho          = 410
   nosym            = .true.
   occupations      = 'smearing'
   degauss          = 0.001
   smearing         = 'marzari-vanderbilt'
   nspin            = 1
   input_dft        = 'beef-vdw'
   ntyp             = 3
   nat              = 39
   ibrav            = 0
/
&ELECTRONS
   mixing_mode      = 'local-TF'
/
&IONS
/
&CELL
/
&FCP
/
&RISM
/
ATOMIC_SPECIES
Pt 195.084 Pt.pbe-n-kjpaw_psl.1.0.0.UPF
C 12.011 C.pbe-n-kjpaw_psl.1.0.0.UPF
H 1.008 H.pbe-kjpaw_psl.1.0.0.UPF

K_POINTS automatic
5 5 1  0 0 0

CELL_PARAMETERS angstrom
8.48528137423857 0.00000000000000 0.00000000000000
4.24264068711929 7.34846922834953 0.00000000000000
0.00000000000000 0.00000000000000 23.92820323027551

ATOMIC_POSITIONS angstrom
Pt 0.0000000000 0.0000000000 8.5000000000   0 0 0
Pt 2.8284271247 0.0000000000 8.5000000000   0 0 0
Pt 5.6568542495 0.0000000000 8.5000000000   0 0 0
Pt 1.4142135624 2.4494897428 8.5000000000   0 0 0
Pt 4.2426406871 2.4494897428 8.5000000000   0 0 0
Pt 7.0710678119 2.4494897428 8.5000000000   0 0 0
Pt 2.8284271247 4.8989794856 8.5000000000   0 0 0
Pt 5.6568542495 4.8989794856 8.5000000000   0 0 0
Pt 8.4852813742 4.8989794856 8.5000000000   0 0 0
Pt 1.4142135624 0.8164965809 10.8094010768   0 0 0
Pt 4.2426406871 0.8164965809 10.8094010768   0 0 0
Pt 7.0710678119 0.8164965809 10.8094010768   0 0 0
Pt 2.8284271247 3.2659863237 10.8094010768   0 0 0
Pt 5.6568542495 3.2659863237 10.8094010768   0 0 0
Pt 8.4852813742 3.2659863237 10.8094010768   0 0 0
Pt 4.2426406871 5.7154760665 10.8094010768   0 0 0
Pt 7.0710678119 5.7154760665 10.8094010768   0 0 0
Pt 9.8994949366 5.7154760665 10.8094010768   0 0 0
Pt 0.0170929306 1.6584040728 13.1411469686  
Pt 2.8109972643 1.6583773334 13.1412742161  
Pt 5.6567500231 1.6630274032 13.0529709380  
Pt 1.4140205030 4.1091508564 13.1171244560  
Pt 4.2276263998 4.1182198022 13.1082918644  
Pt 7.0859727233 4.1182270364 13.1082730185  
Pt 2.8535552715 6.5674822982 13.1368884883  
Pt 5.6567782870 6.5725852812 13.1390835576  
Pt 8.4598307022 6.5674517397 13.1369435390  
Pt -0.0235148363 0.0703891191 15.5988139511  
Pt 2.8511972115 0.0707100926 15.5995180301  
Pt 5.6565657917 0.1043548863 15.3956999925  
Pt 1.4136201337 2.5918233864 15.6155517450  
Pt 4.2852905255 2.4979305779 15.3939915684  
Pt 7.0279088697 2.4979443519 15.3938321511  
Pt 2.9189193262 5.0233239736 15.5309484666  
Pt 5.6566633360 4.9203062259 15.4089316834  
Pt 8.3942593914 5.0236092200 15.5310038356  
C 1.4134072002 0.8857662915 16.6900505805  
H 1.4125154003 1.0961685295 17.7585608074  
C 1.4139130262 4.3572736479 16.5060309645  

