&CONTROL
   tprnfor          = .true.
   pseudo_dir       = '/users/kbadger1/espresso/pseudo/pslibrary.1.0.0/pbe/PSEUDOPOTENTIALS/'
/
&SYSTEM
   ecutwfc          = 40
   ecutrho          = 410
   nosym            = .true.
   occupations      = 'smearing'
   degauss          = 0.001
   smearing         = 'marzari-vanderbilt'
   nspin            = 1
   input_dft        = 'beef-vdw'
   ntyp             = 3
   nat              = 38
   ibrav            = 0
/
&ELECTRONS
   conv_thr         = 1e-08
   mixing_mode      = 'local-TF'
/
&IONS
/
&CELL
/
&FCP
/
&RISM
/
ATOMIC_SPECIES
Pt 195.084 Pt.pbe-n-kjpaw_psl.1.0.0.UPF
C 12.011 C.pbe-n-kjpaw_psl.1.0.0.UPF
H 1.008 H.pbe-kjpaw_psl.1.0.0.UPF

K_POINTS automatic
5 5 1  0 0 0

CELL_PARAMETERS angstrom
8.48528137423857 0.00000000000000 0.00000000000000
4.24264068711929 7.34846922834953 0.00000000000000
0.00000000000000 0.00000000000000 23.92820323027551

ATOMIC_POSITIONS angstrom
Pt 0.0000000000 0.0000000000 8.5000000000   0 0 0
Pt 2.8284271247 0.0000000000 8.5000000000   0 0 0
Pt 5.6568542495 0.0000000000 8.5000000000   0 0 0
Pt 1.4142135624 2.4494897428 8.5000000000   0 0 0
Pt 4.2426406871 2.4494897428 8.5000000000   0 0 0
Pt 7.0710678119 2.4494897428 8.5000000000   0 0 0
Pt 2.8284271247 4.8989794856 8.5000000000   0 0 0
Pt 5.6568542495 4.8989794856 8.5000000000   0 0 0
Pt 8.4852813742 4.8989794856 8.5000000000   0 0 0
Pt 1.4142135624 0.8164965809 10.8094010768   0 0 0
Pt 4.2426406871 0.8164965809 10.8094010768   0 0 0
Pt 7.0710678119 0.8164965809 10.8094010768   0 0 0
Pt 2.8284271247 3.2659863237 10.8094010768   0 0 0
Pt 5.6568542495 3.2659863237 10.8094010768   0 0 0
Pt 8.4852813742 3.2659863237 10.8094010768   0 0 0
Pt 4.2426406871 5.7154760665 10.8094010768   0 0 0
Pt 7.0710678119 5.7154760665 10.8094010768   0 0 0
Pt 9.8994949366 5.7154760665 10.8094010768   0 0 0
Pt 0.0129210233 1.6488984421 13.1355771394  
Pt 2.8155217810 1.6489142618 13.1355606173  
Pt 5.6568403242 1.6555224093 13.0854051439  
Pt 1.4142350031 4.0784655336 13.1536783109  
Pt 4.2382361449 4.1045166657 13.0820063021  
Pt 7.0754534871 4.1045204040 13.0820428214  
Pt 2.8422940558 6.5667559977 13.1253352561  
Pt 5.6568500048 6.5646950536 13.1251525165  
Pt 8.4714159197 6.5667785920 13.1253406688  
Pt -0.0936672230 0.0054492167 15.5582606647  
Pt 2.9220875681 0.0054620577 15.5582470511  
Pt 5.6568534900 0.0599824563 15.4426264520  
Pt 1.4142183113 2.6479745112 15.6131368149  
Pt 4.2723819159 2.5186748272 15.3996481754  
Pt 7.0413084986 2.5186676369 15.3996669361  
Pt 2.8414742197 4.9707383293 15.4357372354  
Pt 5.6568390429 4.9173139831 15.3936021548  
Pt 8.4722482003 4.9707460627 15.4357487668  
C 1.4142102541 0.8128717650 16.4017772378  
H 1.4142020756 2.1947634868 17.1874994520  

