&CONTROL
   tprnfor          = .true.
   pseudo_dir       = '/users/kbadger1/espresso/pseudo/pslibrary.1.0.0/pbe/PSEUDOPOTENTIALS/'
/
&SYSTEM
   ecutwfc          = 40
   ecutrho          = 410
   nosym            = .true.
   occupations      = 'smearing'
   degauss          = 0.001
   smearing         = 'marzari-vanderbilt'
   nspin            = 1
   input_dft        = 'beef-vdw'
   ntyp             = 3
   nat              = 39
   ibrav            = 0
/
&ELECTRONS
   conv_thr         = 1e-08
   mixing_mode      = 'local-TF'
/
&IONS
/
&CELL
/
&FCP
/
&RISM
/
ATOMIC_SPECIES
Pt 195.084 Pt.pbe-n-kjpaw_psl.1.0.0.UPF
O 15.999 O.pbe-nl-kjpaw_psl.1.0.0.UPF
H 1.008 H.pbe-kjpaw_psl.1.0.0.UPF

K_POINTS automatic
5 5 1  0 0 0

CELL_PARAMETERS angstrom
8.48528137423857 0.00000000000000 0.00000000000000
4.24264068711929 7.34846922834953 0.00000000000000
0.00000000000000 0.00000000000000 23.92820323027551

ATOMIC_POSITIONS angstrom
Pt 0.0000000000 0.0000000000 8.5000000000   0 0 0
Pt 2.8284271247 0.0000000000 8.5000000000   0 0 0
Pt 5.6568542495 0.0000000000 8.5000000000   0 0 0
Pt 1.4142135624 2.4494897428 8.5000000000   0 0 0
Pt 4.2426406871 2.4494897428 8.5000000000   0 0 0
Pt 7.0710678119 2.4494897428 8.5000000000   0 0 0
Pt 2.8284271247 4.8989794856 8.5000000000   0 0 0
Pt 5.6568542495 4.8989794856 8.5000000000   0 0 0
Pt 8.4852813742 4.8989794856 8.5000000000   0 0 0
Pt 1.4142135624 0.8164965809 10.8094010768   0 0 0
Pt 4.2426406871 0.8164965809 10.8094010768   0 0 0
Pt 7.0710678119 0.8164965809 10.8094010768   0 0 0
Pt 2.8284271247 3.2659863237 10.8094010768   0 0 0
Pt 5.6568542495 3.2659863237 10.8094010768   0 0 0
Pt 8.4852813742 3.2659863237 10.8094010768   0 0 0
Pt 4.2426406871 5.7154760665 10.8094010768   0 0 0
Pt 7.0710678119 5.7154760665 10.8094010768   0 0 0
Pt 9.8994949366 5.7154760665 10.8094010768   0 0 0
Pt -0.0666999367 1.6757006735 13.0972118733  
Pt 2.7621788177 1.6820336262 13.1086292267  
Pt 5.5878565592 1.6773259698 13.1046736181  
Pt 1.3426191927 4.1292624549 13.1085766497  
Pt 4.1702579187 4.1166716698 13.1206696941  
Pt 6.9997296490 4.1290986943 13.1042708017  
Pt 2.7648904233 6.5718803036 13.0958143313  
Pt 5.5839016015 6.5740520589 13.0969387609  
Pt 8.4139540919 6.5752666456 13.1000121187  
Pt -0.1405574239 0.0913827693 15.4412444003  
Pt 2.6819230146 0.0772980264 15.4239942801  
Pt 5.5248928326 0.0719907754 15.4209054593  
Pt 1.2613043441 2.5415098719 15.4389749847  
Pt 4.0927454683 2.5535346881 15.4536345351  
Pt 6.9445165566 2.5437575310 15.4292015714  
Pt 2.6811114714 5.0019818732 15.4481491584  
Pt 5.5230007498 4.9994796254 15.4439718144  
Pt 8.3431295597 4.9898961457 15.4494951093  
O 4.3051662780 2.1585516803 17.9461386005  
H 5.0568090425 2.7306027189 18.1672256317  
H 4.6944824984 1.2741688331 17.8267284341  

