&CONTROL
   tprnfor          = .true.
   pseudo_dir       = '/users/kbadger1/espresso/pseudo/pslibrary.1.0.0/pbe/PSEUDOPOTENTIALS/'
/
&SYSTEM
   ecutwfc          = 40
   ecutrho          = 410
   nosym            = .true.
   occupations      = 'smearing'
   degauss          = 0.02
   smearing         = 'marzari-vanderbilt'
   nspin            = 1
   input_dft        = 'beef-vdw'
   ntyp             = 2
   nat              = 37
   ibrav            = 0
/
&ELECTRONS
   conv_thr         = 1e-08
   mixing_mode      = 'local-TF'
/
&IONS
/
&CELL
/
&FCP
/
&RISM
/
ATOMIC_SPECIES
Pt 195.084 Pt.pbe-n-kjpaw_psl.1.0.0.UPF
H 1.008 H.pbe-kjpaw_psl.1.0.0.UPF

K_POINTS automatic
5 5 1  0 0 0

CELL_PARAMETERS angstrom
8.48528137423857 0.00000000000000 0.00000000000000
4.24264068711929 7.34846922834953 0.00000000000000
0.00000000000000 0.00000000000000 23.92820323027551

ATOMIC_POSITIONS angstrom
Pt 0.0000000000 0.0000000000 8.5000000000   0 0 0
Pt 2.8284271247 0.0000000000 8.5000000000   0 0 0
Pt 5.6568542495 0.0000000000 8.5000000000   0 0 0
Pt 1.4142135624 2.4494897428 8.5000000000   0 0 0
Pt 4.2426406871 2.4494897428 8.5000000000   0 0 0
Pt 7.0710678119 2.4494897428 8.5000000000   0 0 0
Pt 2.8284271247 4.8989794856 8.5000000000   0 0 0
Pt 5.6568542495 4.8989794856 8.5000000000   0 0 0
Pt 8.4852813742 4.8989794856 8.5000000000   0 0 0
Pt 1.4142135624 0.8164965809 10.8094010768   0 0 0
Pt 4.2426406871 0.8164965809 10.8094010768   0 0 0
Pt 7.0710678119 0.8164965809 10.8094010768   0 0 0
Pt 2.8284271247 3.2659863237 10.8094010768   0 0 0
Pt 5.6568542495 3.2659863237 10.8094010768   0 0 0
Pt 8.4852813742 3.2659863237 10.8094010768   0 0 0
Pt 4.2426406871 5.7154760665 10.8094010768   0 0 0
Pt 7.0710678119 5.7154760665 10.8094010768   0 0 0
Pt 9.8994949366 5.7154760665 10.8094010768   0 0 0
Pt 0.0345753539 1.6285709790 13.1023252662  
Pt 2.8526432376 1.6225122538 13.1183067366  
Pt 5.6808261738 1.6249996021 13.0959612731  
Pt 1.4378292425 4.0621194925 13.1053759373  
Pt 4.2690094947 4.0725611599 13.0957795892  
Pt 7.0970728017 4.0734071312 13.0911903593  
Pt 2.8518106332 6.5227190264 13.0825816527  
Pt 5.6893620506 6.5269822219 13.1044567247  
Pt 8.5010189187 6.5276859824 13.1081901001  
Pt 0.0436053936 -0.0225977583 15.4109452369  
Pt 2.8945454023 -0.0222979551 15.5089543604  
Pt 5.7215777048 -0.0200599086 15.4222064052  
Pt 1.4544477205 2.4607238282 15.5045613060  
Pt 4.3381605438 2.4542686589 15.4489824398  
Pt 7.1290022923 2.4290474728 15.4203704916  
Pt 2.8855413580 4.8902146048 15.4148699819  
Pt 5.7185809167 4.8871266911 15.4237211497  
Pt 8.5422710261 4.8913501138 15.4215993661  
H 2.5614983770 1.5145031924 16.4616582048  

