Pt H 
 1.0000000000000000
     8.4683100000000007    0.0000000000000000    0.0000000000000000
     4.2341550000000012    7.3337715871217997    0.0000000000000000
     0.0000000000000000    0.0000000000000000   24.9656619900000010
 Pt  H  
  36   1
Selective dynamics
Cartesian
  0.0000000000000000  0.0000000000000000  8.5000000000000000   F   F   F
  2.8284271247461903  0.0000000000000000  8.5000000000000000   F   F   F
  5.6568542494923806  0.0000000000000000  8.5000000000000000   F   F   F
  1.4142135623730951  2.4494897427831779  8.5000000000000000   F   F   F
  4.2426406871192857  2.4494897427831779  8.5000000000000000   F   F   F
  7.0710678118654755  2.4494897427831779  8.5000000000000000   F   F   F
  2.8284271247461903  4.8989794855663558  8.5000000000000000   F   F   F
  5.6568542494923806  4.8989794855663558  8.5000000000000000   F   F   F
  8.4852813742385713  4.8989794855663558  8.5000000000000000   F   F   F
  1.4142135623730951  0.8164965809277259 10.8094010767585029   F   F   F
  4.2426406871192848  0.8164965809277259 10.8094010767585029   F   F   F
  7.0710678118654755  0.8164965809277259 10.8094010767585029   F   F   F
  2.8284271247461903  3.2659863237109037 10.8094010767585029   F   F   F
  5.6568542494923806  3.2659863237109037 10.8094010767585029   F   F   F
  8.4852813742385713  3.2659863237109037 10.8094010767585029   F   F   F
  4.2426406871192857  5.7154760664940820 10.8094010767585029   F   F   F
  7.0710678118654755  5.7154760664940820 10.8094010767585029   F   F   F
  9.8994949366116671  5.7154760664940820 10.8094010767585029   F   F   F
  0.0223761518808648  1.6529421949214802 13.1131377725817568   T   T   T
  2.8339095311218059  1.6434632750420040 13.1256016009378822   T   T   T
  5.6559613955568402  1.6458107264531721 13.0991190994939526   T   T   T
  1.4232770604303593  4.0780362431758608 13.1126245743571239   T   T   T
  4.2454399781296495  4.0825136388386385 13.0976866432508903   T   T   T
  7.0695046324524435  4.0881681093571576 13.0910917207132051   T   T   T
  2.8380475515887791  6.5330703514849464 13.0863727268548491   T   T   T
  5.6621970648830882  6.5352638721918366 13.1007600564908149   T   T   T
  8.4797479852135886  6.5327088858766080 13.0978001942509454   T   T   T
  0.0052650787959866  0.0080112221055118 15.4166909908449501   T   T   T
  2.8488863347335087 -0.0098405475092710 15.4611871243861394   T   T   T
  5.6668095108896601  0.0120157064671629 15.4205175264250922   T   T   T
  1.4165524782490930  2.4605489759354904 15.5189116288426732   T   T   T
  4.2688911078203411  2.4598267636913920 15.4673607703974909   T   T   T
  7.0683412139430990  2.4594987305098219 15.4221084392791177   T   T   T
  2.8396730532484802  4.9179364563963874 15.4166561576244092   T   T   T
  5.6602498144012365  4.9025637748342721 15.4174949083652155   T   T   T
  8.4832593982349174  4.9061257110352416 15.4220671880000406   T   T   T
  2.5307314126707690  1.8684748308632086 16.5856262595609003   T   T   T
