&CONTROL
   tprnfor          = .true.
   pseudo_dir       = '/users/kbadger1/espresso/pseudo/pslibrary.1.0.0/pbe/PSEUDOPOTENTIALS/'
/
&SYSTEM
   ecutwfc          = 40
   ecutrho          = 410
   nosym            = .true.
   occupations      = 'smearing'
   degauss          = 0.001
   smearing         = 'marzari-vanderbilt'
   nspin            = 1
   input_dft        = 'beef-vdw'
   ntyp             = 3
   nat              = 38
   ibrav            = 0
/
&ELECTRONS
   conv_thr         = 1e-08
   mixing_mode      = 'local-TF'
/
&IONS
/
&CELL
/
&FCP
/
&RISM
/
ATOMIC_SPECIES
Pt 195.084 Pt.pbe-n-kjpaw_psl.1.0.0.UPF
C 12.011 C.pbe-n-kjpaw_psl.1.0.0.UPF
H 1.008 H.pbe-kjpaw_psl.1.0.0.UPF

K_POINTS automatic
5 5 1  0 0 0

CELL_PARAMETERS angstrom
8.48528137423857 0.00000000000000 0.00000000000000
4.24264068711929 7.34846922834953 0.00000000000000
0.00000000000000 0.00000000000000 23.92820323027551

ATOMIC_POSITIONS angstrom
Pt 0.0000000000 0.0000000000 8.5000000000   0 0 0
Pt 2.8284271247 0.0000000000 8.5000000000   0 0 0
Pt 5.6568542495 0.0000000000 8.5000000000   0 0 0
Pt 1.4142135624 2.4494897428 8.5000000000   0 0 0
Pt 4.2426406871 2.4494897428 8.5000000000   0 0 0
Pt 7.0710678119 2.4494897428 8.5000000000   0 0 0
Pt 2.8284271247 4.8989794856 8.5000000000   0 0 0
Pt 5.6568542495 4.8989794856 8.5000000000   0 0 0
Pt 8.4852813742 4.8989794856 8.5000000000   0 0 0
Pt 1.4142135624 0.8164965809 10.8094010768   0 0 0
Pt 4.2426406871 0.8164965809 10.8094010768   0 0 0
Pt 7.0710678119 0.8164965809 10.8094010768   0 0 0
Pt 2.8284271247 3.2659863237 10.8094010768   0 0 0
Pt 5.6568542495 3.2659863237 10.8094010768   0 0 0
Pt 8.4852813742 3.2659863237 10.8094010768   0 0 0
Pt 4.2426406871 5.7154760665 10.8094010768   0 0 0
Pt 7.0710678119 5.7154760665 10.8094010768   0 0 0
Pt 9.8994949366 5.7154760665 10.8094010768   0 0 0
Pt 0.0022507578 1.6657012305 13.1170041714  
Pt 2.8261856081 1.6656998445 13.1170213701  
Pt 5.6568483204 1.6675220049 13.0902436129  
Pt 1.4142024950 4.1419985818 13.0812948822  
Pt 4.2409482896 4.1243749603 13.0920068917  
Pt 7.0727785635 4.1243790571 13.0920164418  
Pt 2.8443023842 6.5849557211 13.1246449862  
Pt 5.6568621810 6.5810698766 13.1392594679  
Pt 8.4694035304 6.5849577091 13.1246303377  
Pt -0.0370044759 0.0729768758 15.5875113413  
Pt 2.8654384085 0.0729632600 15.5875358099  
Pt 5.6568635963 0.0890841651 15.4415382890  
Pt 1.4142274708 2.6644898505 15.4314449040  
Pt 4.2726001222 2.5480954366 15.4117080609  
Pt 7.0410940609 2.5480728005 15.4116472721  
Pt 2.8430768628 5.0037470126 15.4397843297  
Pt 5.6568224214 4.9520387725 15.4209465719  
Pt 8.4706345734 5.0037509889 15.4397414385  
C 1.4142176162 1.0332409346 16.5556453508  
H 1.4141952188 1.4526151952 17.5636075051  

