&CONTROL
   tprnfor          = .true.
   pseudo_dir       = '/users/kbadger1/espresso/pseudo/pslibrary.1.0.0/pbe/PSEUDOPOTENTIALS/'
/
&SYSTEM
   ecutwfc          = 40
   ecutrho          = 410
   nosym            = .true.
   occupations      = 'smearing'
   degauss          = 0.02
   smearing         = 'marzari-vanderbilt'
   nspin            = 1
   input_dft        = 'beef-vdw'
   ntyp             = 2
   nat              = 37
   ibrav            = 0
/
&ELECTRONS
   mixing_mode      = 'local-TF'
/
&IONS
/
&CELL
/
&FCP
/
&RISM
/
ATOMIC_SPECIES
Pt 195.084 Pt.pbe-n-kjpaw_psl.1.0.0.UPF
H 1.008 H.pbe-kjpaw_psl.1.0.0.UPF

K_POINTS automatic
5 5 1  0 0 0

CELL_PARAMETERS angstrom
8.46831000000000 0.00000000000000 0.00000000000000
4.23415500000000 7.33377158712180 0.00000000000000
0.00000000000000 0.00000000000000 24.96566199000000

ATOMIC_POSITIONS angstrom
Pt 0.0000000000 0.0000000000 8.5000000000   0 0 0
Pt 2.8284271247 0.0000000000 8.5000000000   0 0 0
Pt 5.6568542495 0.0000000000 8.5000000000   0 0 0
Pt 1.4142135624 2.4494897428 8.5000000000   0 0 0
Pt 4.2426406871 2.4494897428 8.5000000000   0 0 0
Pt 7.0710678119 2.4494897428 8.5000000000   0 0 0
Pt 2.8284271247 4.8989794856 8.5000000000   0 0 0
Pt 5.6568542495 4.8989794856 8.5000000000   0 0 0
Pt 8.4852813742 4.8989794856 8.5000000000   0 0 0
Pt 1.4142135624 0.8164965809 10.8094010768   0 0 0
Pt 4.2426406871 0.8164965809 10.8094010768   0 0 0
Pt 7.0710678119 0.8164965809 10.8094010768   0 0 0
Pt 2.8284271247 3.2659863237 10.8094010768   0 0 0
Pt 5.6568542495 3.2659863237 10.8094010768   0 0 0
Pt 8.4852813742 3.2659863237 10.8094010768   0 0 0
Pt 4.2426406871 5.7154760665 10.8094010768   0 0 0
Pt 7.0710678119 5.7154760665 10.8094010768   0 0 0
Pt 9.8994949366 5.7154760665 10.8094010768   0 0 0
Pt 0.0516873827 1.6353961693 13.1314633720  
Pt 2.8551760923 1.6203587876 13.0989761274  
Pt 5.6841308516 1.6237533651 13.0910530997  
Pt 1.4414711342 4.0575137025 13.1092816129  
Pt 4.2646106878 4.0645467709 13.0926859692  
Pt 7.0880976743 4.0654350129 13.0930210738  
Pt 2.8575714108 6.5147214495 13.0931733800  
Pt 5.6768697451 6.5092605876 13.0954369721  
Pt 8.5024387362 6.5049794992 13.0922267219  
Pt 0.0540949382 -0.0314334655 15.4260703221  
Pt 2.8862321396 -0.0452380886 15.4177909891  
Pt 5.7029637208 -0.0305247476 15.4251364147  
Pt 1.4952860718 2.4080019656 15.5372733769  
Pt 4.3136788146 2.4106604960 15.4214429725  
Pt 7.1153598522 2.4132104355 15.4280295407  
Pt 2.8807257253 4.8729445458 15.4157074786  
Pt 5.7039064850 4.8584011925 15.4216384542  
Pt 8.5263914537 4.8583666802 15.4232095772  
H 2.0724678523 2.4094058814 16.9875868754  

