&CONTROL
   tprnfor          = .true.
   pseudo_dir       = '/users/kbadger1/espresso/pseudo/pslibrary.1.0.0/pbe/PSEUDOPOTENTIALS/'
/
&SYSTEM
   ecutwfc          = 40
   ecutrho          = 410
   nosym            = .true.
   occupations      = 'smearing'
   degauss          = 0.02
   smearing         = 'marzari-vanderbilt'
   nspin            = 1
   input_dft        = 'beef-vdw'
   ntyp             = 2
   nat              = 37
   ibrav            = 0
/
&ELECTRONS
   conv_thr         = 1e-08
   mixing_mode      = 'local-TF'
/
&IONS
/
&CELL
/
&FCP
/
&RISM
/
ATOMIC_SPECIES
Pt 195.084 Pt.pbe-n-kjpaw_psl.1.0.0.UPF
H 1.008 H.pbe-kjpaw_psl.1.0.0.UPF

K_POINTS automatic
5 5 1  0 0 0

CELL_PARAMETERS angstrom
8.48528137423857 0.00000000000000 0.00000000000000
4.24264068711929 7.34846922834953 0.00000000000000
0.00000000000000 0.00000000000000 23.92820323027551

ATOMIC_POSITIONS angstrom
Pt 0.0000000000 0.0000000000 8.5000000000   0 0 0
Pt 2.8284271247 0.0000000000 8.5000000000   0 0 0
Pt 5.6568542495 0.0000000000 8.5000000000   0 0 0
Pt 1.4142135624 2.4494897428 8.5000000000   0 0 0
Pt 4.2426406871 2.4494897428 8.5000000000   0 0 0
Pt 7.0710678119 2.4494897428 8.5000000000   0 0 0
Pt 2.8284271247 4.8989794856 8.5000000000   0 0 0
Pt 5.6568542495 4.8989794856 8.5000000000   0 0 0
Pt 8.4852813742 4.8989794856 8.5000000000   0 0 0
Pt 1.4142135624 0.8164965809 10.8094010768   0 0 0
Pt 4.2426406871 0.8164965809 10.8094010768   0 0 0
Pt 7.0710678119 0.8164965809 10.8094010768   0 0 0
Pt 2.8284271247 3.2659863237 10.8094010768   0 0 0
Pt 5.6568542495 3.2659863237 10.8094010768   0 0 0
Pt 8.4852813742 3.2659863237 10.8094010768   0 0 0
Pt 4.2426406871 5.7154760665 10.8094010768   0 0 0
Pt 7.0710678119 5.7154760665 10.8094010768   0 0 0
Pt 9.8994949366 5.7154760665 10.8094010768   0 0 0
Pt 0.0400653358 1.6290157401 13.1168949533  
Pt 2.8596521347 1.6163717031 13.0975909042  
Pt 5.6927375913 1.6209933009 13.0903917321  
Pt 1.4388436851 4.0501136484 13.1194729285  
Pt 4.2662898636 4.0686649131 13.0928741373  
Pt 7.0978735633 4.0684182985 13.0992891808  
Pt 2.8552959878 6.5172159832 13.0911865414  
Pt 5.6821116703 6.5208063532 13.0930960491  
Pt 8.5146288326 6.5087937250 13.0908061191  
Pt 0.0545719328 -0.0362460098 15.4206041443  
Pt 2.9041199883 -0.0561034725 15.4179199152  
Pt 5.7175478327 -0.0316118256 15.4229428765  
Pt 1.5058486047 2.3991137124 15.5150936956  
Pt 4.3316372383 2.4180432025 15.4164871804  
Pt 7.1382083226 2.4151105726 15.4295031831  
Pt 2.8899907423 4.8734863890 15.4214905925  
Pt 5.7140630935 4.8694494970 15.4204543077  
Pt 8.5513448440 4.8631112887 15.4298913090  
H 1.9803623054 2.0868201784 16.9791919035  

