&CONTROL
   tprnfor          = .true.
   pseudo_dir       = '/users/kbadger1/espresso/pseudo/pslibrary.1.0.0/pbe/PSEUDOPOTENTIALS/'
/
&SYSTEM
   ecutwfc          = 40
   ecutrho          = 410
   nosym            = .true.
   occupations      = 'smearing'
   degauss          = 0.02
   smearing         = 'marzari-vanderbilt'
   nspin            = 1
   input_dft        = 'beef-vdw'
   ntyp             = 2
   nat              = 37
   ibrav            = 0
/
&ELECTRONS
   mixing_mode      = 'local-TF'
/
&IONS
/
&CELL
/
&FCP
/
&RISM
/
ATOMIC_SPECIES
Pt 195.084 Pt.pbe-n-kjpaw_psl.1.0.0.UPF
H 1.008 H.pbe-kjpaw_psl.1.0.0.UPF

K_POINTS automatic
5 5 1  0 0 0

CELL_PARAMETERS angstrom
8.46831000000000 0.00000000000000 0.00000000000000
4.23415500000000 7.33377158712180 0.00000000000000
0.00000000000000 0.00000000000000 24.96566199000000

ATOMIC_POSITIONS angstrom
Pt 0.0000000000 0.0000000000 8.5000000000   0 0 0
Pt 2.8284271247 0.0000000000 8.5000000000   0 0 0
Pt 5.6568542495 0.0000000000 8.5000000000   0 0 0
Pt 1.4142135624 2.4494897428 8.5000000000   0 0 0
Pt 4.2426406871 2.4494897428 8.5000000000   0 0 0
Pt 7.0710678119 2.4494897428 8.5000000000   0 0 0
Pt 2.8284271247 4.8989794856 8.5000000000   0 0 0
Pt 5.6568542495 4.8989794856 8.5000000000   0 0 0
Pt 8.4852813742 4.8989794856 8.5000000000   0 0 0
Pt 1.4142135624 0.8164965809 10.8094010768   0 0 0
Pt 4.2426406871 0.8164965809 10.8094010768   0 0 0
Pt 7.0710678119 0.8164965809 10.8094010768   0 0 0
Pt 2.8284271247 3.2659863237 10.8094010768   0 0 0
Pt 5.6568542495 3.2659863237 10.8094010768   0 0 0
Pt 8.4852813742 3.2659863237 10.8094010768   0 0 0
Pt 4.2426406871 5.7154760665 10.8094010768   0 0 0
Pt 7.0710678119 5.7154760665 10.8094010768   0 0 0
Pt 9.8994949366 5.7154760665 10.8094010768   0 0 0
Pt 0.0183967150 1.6392132716 13.1083246861  
Pt 2.8306354668 1.6346741696 13.1176597398  
Pt 5.6596925168 1.6361178913 13.0905768816  
Pt 1.4224838965 4.0709794734 13.1124471932  
Pt 4.2464410509 4.0839224848 13.0905214359  
Pt 7.0710754107 4.0828357929 13.0922214382  
Pt 2.8326364379 6.5249410391 13.0943924622  
Pt 5.6625869951 6.5305898921 13.1083486482  
Pt 8.4706368722 6.5306645778 13.1124704744  
Pt -0.0153584978 -0.0081117121 15.4257324443  
Pt 2.8601509577 -0.0019820455 15.5046553803  
Pt 5.6636204158 0.0114760224 15.4302976515  
Pt 1.4277098916 2.4790259097 15.5046661072  
Pt 4.2787770239 2.4711646353 15.4204852508  
Pt 7.0716326863 2.4572938832 15.4263883884  
Pt 2.8411438073 4.9002383000 15.4302073908  
Pt 5.6632211139 4.8966049383 15.4263152032  
Pt 8.4848383662 4.8993774983 15.4306188669  
H 1.9522787618 1.1278022687 16.5096402338  

