&CONTROL
   tprnfor          = .true.
   pseudo_dir       = '/users/kbadger1/espresso/pseudo/pslibrary.1.0.0/pbe/PSEUDOPOTENTIALS/'
/
&SYSTEM
   ecutwfc          = 40
   ecutrho          = 410
   nosym            = .true.
   occupations      = 'smearing'
   degauss          = 0.02
   smearing         = 'marzari-vanderbilt'
   nspin            = 1
   input_dft        = 'beef-vdw'
   ntyp             = 2
   nat              = 37
   ibrav            = 0
/
&ELECTRONS
   conv_thr         = 1e-08
   mixing_mode      = 'local-TF'
/
&IONS
/
&CELL
/
&FCP
/
&RISM
/
ATOMIC_SPECIES
Pt 195.084 Pt.pbe-n-kjpaw_psl.1.0.0.UPF
H 1.008 H.pbe-kjpaw_psl.1.0.0.UPF

K_POINTS automatic
5 5 1  0 0 0

CELL_PARAMETERS angstrom
8.48528137423857 0.00000000000000 0.00000000000000
4.24264068711929 7.34846922834953 0.00000000000000
0.00000000000000 0.00000000000000 23.92820323027551

ATOMIC_POSITIONS angstrom
Pt 0.0000000000 0.0000000000 8.5000000000   0 0 0
Pt 2.8284271247 0.0000000000 8.5000000000   0 0 0
Pt 5.6568542495 0.0000000000 8.5000000000   0 0 0
Pt 1.4142135624 2.4494897428 8.5000000000   0 0 0
Pt 4.2426406871 2.4494897428 8.5000000000   0 0 0
Pt 7.0710678119 2.4494897428 8.5000000000   0 0 0
Pt 2.8284271247 4.8989794856 8.5000000000   0 0 0
Pt 5.6568542495 4.8989794856 8.5000000000   0 0 0
Pt 8.4852813742 4.8989794856 8.5000000000   0 0 0
Pt 1.4142135624 0.8164965809 10.8094010768   0 0 0
Pt 4.2426406871 0.8164965809 10.8094010768   0 0 0
Pt 7.0710678119 0.8164965809 10.8094010768   0 0 0
Pt 2.8284271247 3.2659863237 10.8094010768   0 0 0
Pt 5.6568542495 3.2659863237 10.8094010768   0 0 0
Pt 8.4852813742 3.2659863237 10.8094010768   0 0 0
Pt 4.2426406871 5.7154760665 10.8094010768   0 0 0
Pt 7.0710678119 5.7154760665 10.8094010768   0 0 0
Pt 9.8994949366 5.7154760665 10.8094010768   0 0 0
Pt 0.0053230293 1.6342135563 13.1002075892  
Pt 2.8243406434 1.6309258350 13.1113344673  
Pt 5.6580509349 1.6320146420 13.0867349665  
Pt 1.4120065160 4.0704488476 13.1049090759  
Pt 4.2422054355 4.0844317955 13.0866606559  
Pt 7.0715780146 4.0830685105 13.0887871522  
Pt 2.8239855852 6.5297119099 13.0843150633  
Pt 5.6603002448 6.5364239506 13.1002215351  
Pt 8.4734659421 6.5365028924 13.1048684490  
Pt -0.0320058742 -0.0178497160 15.4125468108  
Pt 2.8514549803 -0.0116933918 15.4897271016  
Pt 5.6601288634 0.0019470270 15.4183564969  
Pt 1.4150583830 2.4761316775 15.4898552595  
Pt 4.2725728703 2.4674324571 15.4106900834  
Pt 7.0707924650 2.4533941075 15.4165739881  
Pt 2.8312199523 4.9017219810 15.4184402810  
Pt 5.6595048261 4.8976638052 15.4166060311  
Pt 8.4869712295 4.9005737116 15.4193650628  
H 1.9378813811 1.1193555320 16.4895314861  

