&CONTROL
   tprnfor          = .true.
   pseudo_dir       = '/users/kbadger1/espresso/pseudo/pslibrary.1.0.0/pbe/PSEUDOPOTENTIALS/'
/
&SYSTEM
   ecutwfc          = 40
   ecutrho          = 410
   nosym            = .true.
   occupations      = 'smearing'
   degauss          = 0.02
   smearing         = 'marzari-vanderbilt'
   nspin            = 1
   input_dft        = 'beef-vdw'
   ntyp             = 2
   nat              = 37
   ibrav            = 0
/
&ELECTRONS
   mixing_mode      = 'local-TF'
/
&IONS
/
&CELL
/
&FCP
/
&RISM
/
ATOMIC_SPECIES
Pt 195.084 Pt.pbe-n-kjpaw_psl.1.0.0.UPF
H 1.008 H.pbe-kjpaw_psl.1.0.0.UPF

K_POINTS automatic
5 5 1  0 0 0

CELL_PARAMETERS angstrom
8.46831000000000 0.00000000000000 0.00000000000000
4.23415500000000 7.33377158712180 0.00000000000000
0.00000000000000 0.00000000000000 24.96566199000000

ATOMIC_POSITIONS angstrom
Pt 0.0000000000 0.0000000000 8.5000000000   0 0 0
Pt 2.8284271247 0.0000000000 8.5000000000   0 0 0
Pt 5.6568542495 0.0000000000 8.5000000000   0 0 0
Pt 1.4142135624 2.4494897428 8.5000000000   0 0 0
Pt 4.2426406871 2.4494897428 8.5000000000   0 0 0
Pt 7.0710678119 2.4494897428 8.5000000000   0 0 0
Pt 2.8284271247 4.8989794856 8.5000000000   0 0 0
Pt 5.6568542495 4.8989794856 8.5000000000   0 0 0
Pt 8.4852813742 4.8989794856 8.5000000000   0 0 0
Pt 1.4142135624 0.8164965809 10.8094010768   0 0 0
Pt 4.2426406871 0.8164965809 10.8094010768   0 0 0
Pt 7.0710678119 0.8164965809 10.8094010768   0 0 0
Pt 2.8284271247 3.2659863237 10.8094010768   0 0 0
Pt 5.6568542495 3.2659863237 10.8094010768   0 0 0
Pt 8.4852813742 3.2659863237 10.8094010768   0 0 0
Pt 4.2426406871 5.7154760665 10.8094010768   0 0 0
Pt 7.0710678119 5.7154760665 10.8094010768   0 0 0
Pt 9.8994949366 5.7154760665 10.8094010768   0 0 0
Pt 0.0168876441 1.6293886913 13.1133487680  
Pt 2.8304022987 1.6283200194 13.1105462664  
Pt 5.6581879994 1.6287329483 13.0908062515  
Pt 1.4244218915 4.0585960630 13.1205476869  
Pt 4.2458611623 4.0753135813 13.0927282801  
Pt 7.0707294733 4.0755490897 13.0917433537  
Pt 2.8411057532 6.5204352009 13.1075143443  
Pt 5.6586529424 6.5231328915 13.1097344174  
Pt 8.4784234814 6.5192306460 13.1035093789  
Pt -0.0044206054 -0.0137454026 15.4697723481  
Pt 2.8570784553 -0.0143906034 15.4658109853  
Pt 5.6596414389 -0.0009246666 15.4326504560  
Pt 1.4260460933 2.4706320243 15.5096944375  
Pt 4.2609417309 2.4467312128 15.4235061234  
Pt 7.0582414961 2.4472095344 15.4236269749  
Pt 2.8414395059 4.8908823220 15.4319169192  
Pt 5.6599620637 4.8807378815 15.4260916813  
Pt 8.4782001734 4.8909279529 15.4308101518  
H 1.4171388555 1.1863518439 16.5689702402  

