&CONTROL
   tprnfor          = .true.
   pseudo_dir       = '/users/kbadger1/espresso/pseudo/pslibrary.1.0.0/pbe/PSEUDOPOTENTIALS/'
/
&SYSTEM
   ecutwfc          = 40
   ecutrho          = 410
   nosym            = .true.
   occupations      = 'smearing'
   degauss          = 0.001
   smearing         = 'marzari-vanderbilt'
   nspin            = 1
   input_dft        = 'beef-vdw'
   ntyp             = 3
   nat              = 39
   ibrav            = 0
/
&ELECTRONS
   mixing_mode      = 'local-TF'
/
&IONS
/
&CELL
/
&FCP
/
&RISM
/
ATOMIC_SPECIES
Pt 195.084 Pt.pbe-n-kjpaw_psl.1.0.0.UPF
O 15.999 O.pbe-nl-kjpaw_psl.1.0.0.UPF
H 1.008 H.pbe-kjpaw_psl.1.0.0.UPF

K_POINTS automatic
5 5 1  0 0 0

CELL_PARAMETERS angstrom
8.48528137423857 0.00000000000000 0.00000000000000
4.24264068711929 7.34846922834953 0.00000000000000
0.00000000000000 0.00000000000000 23.92820323027551

ATOMIC_POSITIONS angstrom
Pt 0.0000000000 0.0000000000 8.5000000000   0 0 0
Pt 2.8284271247 0.0000000000 8.5000000000   0 0 0
Pt 5.6568542495 0.0000000000 8.5000000000   0 0 0
Pt 1.4142135624 2.4494897428 8.5000000000   0 0 0
Pt 4.2426406871 2.4494897428 8.5000000000   0 0 0
Pt 7.0710678119 2.4494897428 8.5000000000   0 0 0
Pt 2.8284271247 4.8989794856 8.5000000000   0 0 0
Pt 5.6568542495 4.8989794856 8.5000000000   0 0 0
Pt 8.4852813742 4.8989794856 8.5000000000   0 0 0
Pt 1.4142135624 0.8164965809 10.8094010768   0 0 0
Pt 4.2426406871 0.8164965809 10.8094010768   0 0 0
Pt 7.0710678119 0.8164965809 10.8094010768   0 0 0
Pt 2.8284271247 3.2659863237 10.8094010768   0 0 0
Pt 5.6568542495 3.2659863237 10.8094010768   0 0 0
Pt 8.4852813742 3.2659863237 10.8094010768   0 0 0
Pt 4.2426406871 5.7154760665 10.8094010768   0 0 0
Pt 7.0710678119 5.7154760665 10.8094010768   0 0 0
Pt 9.8994949366 5.7154760665 10.8094010768   0 0 0
Pt -0.0648687989 1.6761855816 13.0960277300  
Pt 2.7625052170 1.6835804341 13.1066227053  
Pt 5.5902313937 1.6778432948 13.1036748873  
Pt 1.3439612778 4.1317694585 13.1097679637  
Pt 4.1705816219 4.1169903966 13.1241335392  
Pt 7.0010615381 4.1308582286 13.1040263244  
Pt 2.7679985549 6.5722081861 13.0958341493  
Pt 5.5837596015 6.5747212938 13.0954471421  
Pt 8.4152330374 6.5764047041 13.0988926328  
Pt -0.1370017831 0.0967605774 15.4433113765  
Pt 2.6838591532 0.0793169342 15.4173604367  
Pt 5.5311566133 0.0717418313 15.4166264086  
Pt 1.2640055015 2.5461713816 15.4370494049  
Pt 4.0958459280 2.5669633844 15.4461600233  
Pt 6.9507927810 2.5486468987 15.4260340399  
Pt 2.6833045816 5.0091505171 15.4527177623  
Pt 5.5275769093 5.0059734836 15.4451583396  
Pt 8.3462334775 4.9945734250 15.4512575884  
O 4.3316832551 2.0748289615 17.8708030502  
H 5.0570935152 2.6651810689 18.1301201998  
H 4.7649320555 1.2235380662 17.6634728232  

