&CONTROL
   calculation      = 'ensemble'
   tprnfor          = .true.
   pseudo_dir       = '/users/kbadger1/espresso/pseudo/pslibrary.1.0.0/pbe/PSEUDOPOTENTIALS/'
/
&SYSTEM
   ecutwfc          = 50
   ecutrho          = 410
   nosym            = .true.
   occupations      = 'smearing'
   degauss          = 0.02
   smearing         = 'marzari-vanderbilt'
   nspin            = 1
   input_dft        = 'beef-vdw'
   ntyp             = 5
   nat              = 40
   ibrav            = 0
/
&ELECTRONS
   conv_thr         = 1e-08
   mixing_mode      = 'local-TF'
/
&IONS
/
&CELL
/
&FCP
/
&RISM
/
ATOMIC_SPECIES
Pt 195.084 Pt.pbe-n-kjpaw_psl.1.0.0.UPF
C 12.011 C.pbe-n-kjpaw_psl.1.0.0.UPF
H 1.008 H.pbe-kjpaw_psl.1.0.0.UPF
N 14.007 N.pbe-n-kjpaw_psl.1.0.0.UPF
O 15.999 O.pbe-nl-kjpaw_psl.1.0.0.UPF

K_POINTS automatic
5 5 1  0 0 0

CELL_PARAMETERS angstrom
8.48528137423857 0.00000000000000 0.00000000000000
4.24264068711929 7.34846922834953 0.00000000000000
0.00000000000000 0.00000000000000 23.92820323027551

ATOMIC_POSITIONS angstrom
Pt 0.0000000000 0.0000000000 8.5000000000   0 0 0
Pt 2.8284271247 0.0000000000 8.5000000000   0 0 0
Pt 5.6568542495 0.0000000000 8.5000000000   0 0 0
Pt 1.4142135624 2.4494897428 8.5000000000   0 0 0
Pt 4.2426406871 2.4494897428 8.5000000000   0 0 0
Pt 7.0710678119 2.4494897428 8.5000000000   0 0 0
Pt 2.8284271247 4.8989794856 8.5000000000   0 0 0
Pt 5.6568542495 4.8989794856 8.5000000000   0 0 0
Pt 8.4852813742 4.8989794856 8.5000000000   0 0 0
Pt 1.4142135624 0.8164965809 10.8094010768   0 0 0
Pt 4.2426406871 0.8164965809 10.8094010768   0 0 0
Pt 7.0710678119 0.8164965809 10.8094010768   0 0 0
Pt 2.8284271247 3.2659863237 10.8094010768   0 0 0
Pt 5.6568542495 3.2659863237 10.8094010768   0 0 0
Pt 8.4852813742 3.2659863237 10.8094010768   0 0 0
Pt 4.2426406871 5.7154760665 10.8094010768   0 0 0
Pt 7.0710678119 5.7154760665 10.8094010768   0 0 0
Pt 9.8994949366 5.7154760665 10.8094010768   0 0 0
Pt 0.0104124035 1.6173353819 13.1319582994  
Pt 2.8349637635 1.6344901560 13.0947374221  
Pt 5.6566317967 1.6159342287 13.1254219559  
Pt 1.4235592800 4.0662201496 13.1080421382  
Pt 4.2369168765 4.0576973231 13.1111897409  
Pt 7.0781162378 4.0706927355 13.0742971510  
Pt 2.8294153912 6.5685306983 13.1907242809  
Pt 5.6468515603 6.5276944006 13.1135599745  
Pt 8.5125445194 6.5298856250 13.1017792569  
Pt 0.0009109080 -0.0143088131 15.6968607174  
Pt 2.7940978638 -0.0849183130 15.3932563833  
Pt 5.7492245213 -0.0688713189 15.6602159994  
Pt 1.4188064399 2.4813668848 15.5498268125  
Pt 4.2628869741 2.5286124994 15.5209898037  
Pt 7.0711368258 2.4615778421 15.4113739842  
Pt 2.8434881229 4.9114221855 15.4271307742  
Pt 5.6612932352 4.8490473220 15.3908459811  
Pt 8.4975244200 4.8580744682 15.3952439918  
C 1.4683916656 0.8721305950 16.6790276836  
H 2.5800408836 0.9211557760 17.7183825891  
N 4.1921623152 0.8480099304 16.6587494690  
O 3.7464567614 0.8863343295 17.9015975615  

