&CONTROL
   tprnfor          = .true.
   pseudo_dir       = '/users/kbadger1/espresso/pseudo/pslibrary.1.0.0/pbe/PSEUDOPOTENTIALS/'
/
&SYSTEM
   ecutwfc          = 40
   ecutrho          = 410
   nosym            = .true.
   occupations      = 'smearing'
   degauss          = 0.02
   smearing         = 'marzari-vanderbilt'
   nspin            = 1
   input_dft        = 'beef-vdw'
   ntyp             = 3
   nat              = 38
   ibrav            = 0
/
&ELECTRONS
   mixing_mode      = 'local-TF'
/
&IONS
/
&CELL
/
&FCP
/
&RISM
/
ATOMIC_SPECIES
Pt 195.084 Pt.pbe-n-kjpaw_psl.1.0.0.UPF
H 1.008 H.pbe-kjpaw_psl.1.0.0.UPF
C 12.011 C.pbe-n-kjpaw_psl.1.0.0.UPF

K_POINTS automatic
5 5 1  0 0 0

CELL_PARAMETERS angstrom
8.46831000000000 0.00000000000000 0.00000000000000
4.23415500000000 7.33377158712180 0.00000000000000
0.00000000000000 0.00000000000000 24.96566199000000

ATOMIC_POSITIONS angstrom
Pt 0.0000000000 0.0000000000 8.5000000000   0 0 0
Pt 2.8284271247 0.0000000000 8.5000000000   0 0 0
Pt 5.6568542495 0.0000000000 8.5000000000   0 0 0
Pt 1.4142135624 2.4494897428 8.5000000000   0 0 0
Pt 4.2426406871 2.4494897428 8.5000000000   0 0 0
Pt 7.0710678119 2.4494897428 8.5000000000   0 0 0
Pt 2.8284271247 4.8989794856 8.5000000000   0 0 0
Pt 5.6568542495 4.8989794856 8.5000000000   0 0 0
Pt 8.4852813742 4.8989794856 8.5000000000   0 0 0
Pt 1.4142135624 0.8164965809 10.8094010768   0 0 0
Pt 4.2426406871 0.8164965809 10.8094010768   0 0 0
Pt 7.0710678119 0.8164965809 10.8094010768   0 0 0
Pt 2.8284271247 3.2659863237 10.8094010768   0 0 0
Pt 5.6568542495 3.2659863237 10.8094010768   0 0 0
Pt 8.4852813742 3.2659863237 10.8094010768   0 0 0
Pt 4.2426406871 5.7154760665 10.8094010768   0 0 0
Pt 7.0710678119 5.7154760665 10.8094010768   0 0 0
Pt 9.8994949366 5.7154760665 10.8094010768   0 0 0
Pt 0.0133687198 1.6270271594 13.1304566030  
Pt 2.8218288101 1.6265459410 13.1275280005  
Pt 5.6522790341 1.6289756452 13.0926567424  
Pt 1.4182867962 4.0620953392 13.1195630632  
Pt 4.2388620887 4.0770215317 13.0926509713  
Pt 7.0661672738 4.0772897302 13.0921381791  
Pt 2.8425952968 6.5277950897 13.1238414110  
Pt 5.6521757376 6.5281518763 13.1304314529  
Pt 8.4634340291 6.5271620564 13.1199745552  
Pt -0.0368887570 -0.0263684315 15.5815554232  
Pt 2.8624496341 -0.0261117045 15.5776659708  
Pt 5.6465403743 -0.0033233796 15.4348863584  
Pt 1.4130071993 2.4835723232 15.5776218341  
Pt 4.2612268115 2.4554030190 15.4261205803  
Pt 7.0328043775 2.4560674306 15.4271956098  
Pt 2.8247274813 4.8842314290 15.4349520401  
Pt 5.6475764008 4.8549814597 15.4273431462  
Pt 8.4692520333 4.8847405290 15.4339039439  
H 1.4137786141 0.8100920108 17.7624527939  
C 1.4131017794 0.8107211486 16.6688302594  

