&CONTROL
   tprnfor          = .true.
   pseudo_dir       = '/users/kbadger1/espresso/pseudo/pslibrary.1.0.0/pbe/PSEUDOPOTENTIALS/'
/
&SYSTEM
   ecutwfc          = 40
   ecutrho          = 410
   nosym            = .true.
   occupations      = 'smearing'
   degauss          = 0.02
   smearing         = 'marzari-vanderbilt'
   nspin            = 1
   input_dft        = 'beef-vdw'
   ntyp             = 3
   nat              = 38
   ibrav            = 0
/
&ELECTRONS
   mixing_mode      = 'local-TF'
/
&IONS
/
&CELL
/
&FCP
/
&RISM
/
ATOMIC_SPECIES
Pt 195.084 Pt.pbe-n-kjpaw_psl.1.0.0.UPF
C 12.011 C.pbe-n-kjpaw_psl.1.0.0.UPF
H 1.008 H.pbe-kjpaw_psl.1.0.0.UPF

K_POINTS automatic
5 5 1  0 0 0

CELL_PARAMETERS angstrom
8.48528137423857 0.00000000000000 0.00000000000000
4.24264068711929 7.34846922834953 0.00000000000000
0.00000000000000 0.00000000000000 23.92820323027551

ATOMIC_POSITIONS angstrom
Pt 0.0000000000 0.0000000000 8.5000000000   0 0 0
Pt 2.8284271247 0.0000000000 8.5000000000   0 0 0
Pt 5.6568542495 0.0000000000 8.5000000000   0 0 0
Pt 1.4142135624 2.4494897428 8.5000000000   0 0 0
Pt 4.2426406871 2.4494897428 8.5000000000   0 0 0
Pt 7.0710678119 2.4494897428 8.5000000000   0 0 0
Pt 2.8284271247 4.8989794856 8.5000000000   0 0 0
Pt 5.6568542495 4.8989794856 8.5000000000   0 0 0
Pt 8.4852813742 4.8989794856 8.5000000000   0 0 0
Pt 1.4142135624 0.8164965809 10.8094010768   0 0 0
Pt 4.2426406871 0.8164965809 10.8094010768   0 0 0
Pt 7.0710678119 0.8164965809 10.8094010768   0 0 0
Pt 2.8284271247 3.2659863237 10.8094010768   0 0 0
Pt 5.6568542495 3.2659863237 10.8094010768   0 0 0
Pt 8.4852813742 3.2659863237 10.8094010768   0 0 0
Pt 4.2426406871 5.7154760665 10.8094010768   0 0 0
Pt 7.0710678119 5.7154760665 10.8094010768   0 0 0
Pt 9.8994949366 5.7154760665 10.8094010768   0 0 0
Pt 0.0011062270 1.6279302067 13.1222242198  
Pt 2.8150597231 1.6279212448 13.1210859406  
Pt 5.6509929048 1.6303189217 13.0889855678  
Pt 1.4083636058 4.0674293561 13.1118584313  
Pt 4.2351390100 4.0826452187 13.0891422640  
Pt 7.0668268645 4.0826417833 13.0890358039  
Pt 2.8348043388 6.5382980933 13.1119328420  
Pt 5.6506964257 6.5396130492 13.1217454060  
Pt 8.4672148120 6.5382496425 13.1116774696  
Pt -0.0516778551 -0.0245881168 15.5641477623  
Pt 2.8544058397 -0.0238500780 15.5622613205  
Pt 5.6451470483 -0.0017370794 15.4218453129  
Pt 1.4020243648 2.4924955172 15.5630679993  
Pt 4.2569806994 2.4627711744 15.4167552656  
Pt 7.0323711526 2.4634804312 15.4176879733  
Pt 2.8166743592 4.8972526832 15.4220584726  
Pt 5.6452914422 4.8664468476 15.4174288574  
Pt 8.4737383801 4.8973088966 15.4217885819  
C 1.4009863700 0.8143829602 16.6461362016  
H 1.3989176105 0.8142744622 17.7397405939  

