Pt H 
 1.0000000000000000
     8.4683100000000007    0.0000000000000000    0.0000000000000000
     4.2341550000000012    7.3337715871217997    0.0000000000000000
     0.0000000000000000    0.0000000000000000   24.9656619900000010
 Pt  H  
  36   1
Selective dynamics
Cartesian
  0.0000000000000000  0.0000000000000000  8.5000000000000000   F   F   F
  2.8284271247461903  0.0000000000000000  8.5000000000000000   F   F   F
  5.6568542494923806  0.0000000000000000  8.5000000000000000   F   F   F
  1.4142135623730951  2.4494897427831779  8.5000000000000000   F   F   F
  4.2426406871192857  2.4494897427831779  8.5000000000000000   F   F   F
  7.0710678118654755  2.4494897427831779  8.5000000000000000   F   F   F
  2.8284271247461903  4.8989794855663558  8.5000000000000000   F   F   F
  5.6568542494923806  4.8989794855663558  8.5000000000000000   F   F   F
  8.4852813742385713  4.8989794855663558  8.5000000000000000   F   F   F
  1.4142135623730951  0.8164965809277259 10.8094010767585029   F   F   F
  4.2426406871192848  0.8164965809277259 10.8094010767585029   F   F   F
  7.0710678118654755  0.8164965809277259 10.8094010767585029   F   F   F
  2.8284271247461903  3.2659863237109037 10.8094010767585029   F   F   F
  5.6568542494923806  3.2659863237109037 10.8094010767585029   F   F   F
  8.4852813742385713  3.2659863237109037 10.8094010767585029   F   F   F
  4.2426406871192857  5.7154760664940820 10.8094010767585029   F   F   F
  7.0710678118654755  5.7154760664940820 10.8094010767585029   F   F   F
  9.8994949366116671  5.7154760664940820 10.8094010767585029   F   F   F
  0.0320018051120899  1.6497491661955421 13.1043119626629601   T   T   T
  2.8463473103477095  1.6438087571214470 13.1230101336039500   T   T   T
  5.6717441097306969  1.6451126403650784 13.0897005839472467   T   T   T
  1.4362320558015087  4.0810395608529451 13.1079534321658606   T   T   T
  4.2601898103985203  4.0899931928464115 13.0896699044630225   T   T   T
  7.0831364813931756  4.0903473626846232 13.0903270563659646   T   T   T
  2.8470815451645595  6.5331710761686974 13.0838799083421282   T   T   T
  5.6775606525743090  6.5383508990795196 13.1044194540569148   T   T   T
  8.4856300601181456  6.5375859594335317 13.1080393283310954   T   T   T
  0.0181529280095310  0.0121885196273000 15.4103468725973123   T   T   T
  2.8744609186695400  0.0056082010516465 15.4978358398551421   T   T   T
  5.6907837678737074  0.0218453875827689 15.4187489608313921   T   T   T
  1.4406602602998395  2.4892861904221739 15.4977971998021946   T   T   T
  4.3112939157895909  2.4904626058729287 15.4346996836487360   T   T   T
  7.0963282217000065  2.4670744691141437 15.4209465415981626   T   T   T
  2.8632763846015172  4.9200488308436325 15.4189222281866662   T   T   T
  5.6838502683908674  4.9139082236688267 15.4206486443359196   T   T   T
  8.5074905534190854  4.9128246612316939 15.4239982479316087   T   T   T
  2.4982412186496883  1.4435283211800480 16.4555407558294569   T   T   T
