&CONTROL
   tprnfor          = .true.
   pseudo_dir       = '/users/kbadger1/espresso/pseudo/pslibrary.1.0.0/pbe/PSEUDOPOTENTIALS/'
/
&SYSTEM
   ecutwfc          = 40
   ecutrho          = 410
   nosym            = .true.
   occupations      = 'smearing'
   degauss          = 0.001
   smearing         = 'marzari-vanderbilt'
   nspin            = 1
   input_dft        = 'beef-vdw'
   ntyp             = 4
   nat              = 41
   ibrav            = 0
/
&ELECTRONS
   mixing_mode      = 'local-TF'
/
&IONS
/
&CELL
/
&FCP
/
&RISM
/
ATOMIC_SPECIES
Pt 195.084 Pt.pbe-n-kjpaw_psl.1.0.0.UPF
O 15.999 O.pbe-nl-kjpaw_psl.1.0.0.UPF
H 1.008 H.pbe-kjpaw_psl.1.0.0.UPF
C 12.011 C.pbe-n-kjpaw_psl.1.0.0.UPF

K_POINTS automatic
5 5 1  0 0 0

CELL_PARAMETERS angstrom
8.48528137423857 0.00000000000000 0.00000000000000
4.24264068711929 7.34846922834953 0.00000000000000
0.00000000000000 0.00000000000000 23.92820323027551

ATOMIC_POSITIONS angstrom
Pt 0.0000000000 0.0000000000 8.5000000000   0 0 0
Pt 2.8284271247 0.0000000000 8.5000000000   0 0 0
Pt 5.6568542495 0.0000000000 8.5000000000   0 0 0
Pt 1.4142135624 2.4494897428 8.5000000000   0 0 0
Pt 4.2426406871 2.4494897428 8.5000000000   0 0 0
Pt 7.0710678119 2.4494897428 8.5000000000   0 0 0
Pt 2.8284271247 4.8989794856 8.5000000000   0 0 0
Pt 5.6568542495 4.8989794856 8.5000000000   0 0 0
Pt 8.4852813742 4.8989794856 8.5000000000   0 0 0
Pt 1.4142135624 0.8164965809 10.8094010768   0 0 0
Pt 4.2426406871 0.8164965809 10.8094010768   0 0 0
Pt 7.0710678119 0.8164965809 10.8094010768   0 0 0
Pt 2.8284271247 3.2659863237 10.8094010768   0 0 0
Pt 5.6568542495 3.2659863237 10.8094010768   0 0 0
Pt 8.4852813742 3.2659863237 10.8094010768   0 0 0
Pt 4.2426406871 5.7154760665 10.8094010768   0 0 0
Pt 7.0710678119 5.7154760665 10.8094010768   0 0 0
Pt 9.8994949366 5.7154760665 10.8094010768   0 0 0
Pt -0.0020031677 1.6246891161 13.1215220616  
Pt 2.8407525073 1.6535914308 13.1256398904  
Pt 5.6386489995 1.6536894994 13.1255282539  
Pt 1.4275650316 4.0964562269 13.1316673269  
Pt 4.2401205592 4.0764275363 13.1480345207  
Pt 7.0514387821 4.0969197317 13.1306134814  
Pt 2.8330171350 6.5344645174 13.1019272516  
Pt 5.6459437959 6.5324497987 13.1024668088  
Pt 8.4825626311 6.5347937637 13.0839800187  
Pt -0.0050687132 0.1269457839 15.4872000870  
Pt 2.8366481993 0.0151692418 15.3879162658  
Pt 5.6368034612 0.0171424749 15.3909272854  
Pt 1.4004519919 2.4630876245 15.4449791580  
Pt 4.2372048338 2.4211623164 15.6474105034  
Pt 7.0774460548 2.4634773233 15.4407331270  
Pt 2.7323697392 4.8563777470 15.4835226860  
Pt 5.7411928411 4.8524039341 15.4919805041  
Pt 8.4796545332 4.9096588258 15.4419375060  
O 4.2368179030 5.7404758349 16.5864564436  
H 3.8263984278 3.3538361833 18.0676558702  
H 5.2730426845 2.2873596380 18.0622539827  
H 3.6282265812 1.5661564931 18.0642254404  
C 4.2410796243 2.4037122331 17.7342641624  

