&CONTROL
   tprnfor          = .true.
   pseudo_dir       = '/users/kbadger1/espresso/pseudo/pslibrary.1.0.0/pbe/PSEUDOPOTENTIALS/'
/
&SYSTEM
   ecutwfc          = 40
   ecutrho          = 410
   nosym            = .true.
   occupations      = 'smearing'
   degauss          = 0.02
   smearing         = 'marzari-vanderbilt'
   nspin            = 1
   input_dft        = 'beef-vdw'
   ntyp             = 3
   nat              = 39
   ibrav            = 0
/
&ELECTRONS
   mixing_mode      = 'local-TF'
/
&IONS
/
&CELL
/
&FCP
/
&RISM
/
ATOMIC_SPECIES
Pt 195.084 Pt.pbe-n-kjpaw_psl.1.0.0.UPF
O 15.999 O.pbe-nl-kjpaw_psl.1.0.0.UPF
H 1.008 H.pbe-kjpaw_psl.1.0.0.UPF

K_POINTS automatic
5 5 1  0 0 0

CELL_PARAMETERS angstrom
8.48528137423857 0.00000000000000 0.00000000000000
4.24264068711929 7.34846922834953 0.00000000000000
0.00000000000000 0.00000000000000 23.92820323027551

ATOMIC_POSITIONS angstrom
Pt 0.0000000000 0.0000000000 8.5000000000   0 0 0
Pt 2.8284271247 0.0000000000 8.5000000000   0 0 0
Pt 5.6568542495 0.0000000000 8.5000000000   0 0 0
Pt 1.4142135624 2.4494897428 8.5000000000   0 0 0
Pt 4.2426406871 2.4494897428 8.5000000000   0 0 0
Pt 7.0710678119 2.4494897428 8.5000000000   0 0 0
Pt 2.8284271247 4.8989794856 8.5000000000   0 0 0
Pt 5.6568542495 4.8989794856 8.5000000000   0 0 0
Pt 8.4852813742 4.8989794856 8.5000000000   0 0 0
Pt 1.4142135624 0.8164965809 10.8094010768   0 0 0
Pt 4.2426406871 0.8164965809 10.8094010768   0 0 0
Pt 7.0710678119 0.8164965809 10.8094010768   0 0 0
Pt 2.8284271247 3.2659863237 10.8094010768   0 0 0
Pt 5.6568542495 3.2659863237 10.8094010768   0 0 0
Pt 8.4852813742 3.2659863237 10.8094010768   0 0 0
Pt 4.2426406871 5.7154760665 10.8094010768   0 0 0
Pt 7.0710678119 5.7154760665 10.8094010768   0 0 0
Pt 9.8994949366 5.7154760665 10.8094010768   0 0 0
Pt -0.0105620572 1.6447066124 13.0760534550  
Pt 2.8328965493 1.6518167071 13.1158019742  
Pt 5.6322160497 1.6416564831 13.1485656180  
Pt 1.4079030429 4.0972382265 13.0838456395  
Pt 4.2334540370 4.0807858847 13.1188833276  
Pt 7.0653013226 4.0936666440 13.0824712288  
Pt 2.8100024473 6.5563751114 13.0963967621  
Pt 5.6492388110 6.5471896643 13.0728241725  
Pt 8.4887785670 6.5525683880 13.1070690754  
Pt -0.0076771432 0.0271003562 15.4119148482  
Pt 2.8022193935 0.0141029024 15.3986409696  
Pt 5.6486256584 0.0108266416 15.5366713481  
Pt 1.3837855237 2.4760872955 15.3901323154  
Pt 4.2507984164 2.4928763986 15.5323779414  
Pt 7.0764811253 2.4789907583 15.4062885846  
Pt 2.8105328262 4.9463545347 15.3971415025  
Pt 5.6548494846 4.9456461598 15.4029285309  
Pt 8.4676536640 4.9230481863 15.4123122026  
O 4.0580125922 2.5209442123 17.5384361034  
H 4.8711447259 2.9178305666 17.8937939267  
H 5.6078107296 -0.0031341021 17.0909974338  

