&CONTROL
   tprnfor          = .true.
   pseudo_dir       = '/users/kbadger1/espresso/pseudo/pslibrary.1.0.0/pbe/PSEUDOPOTENTIALS/'
/
&SYSTEM
   ecutwfc          = 40
   ecutrho          = 410
   nosym            = .true.
   occupations      = 'smearing'
   degauss          = 0.02
   smearing         = 'marzari-vanderbilt'
   nspin            = 1
   input_dft        = 'beef-vdw'
   ntyp             = 2
   nat              = 37
   ibrav            = 0
/
&ELECTRONS
   mixing_mode      = 'local-TF'
/
&IONS
/
&CELL
/
&FCP
/
&RISM
/
ATOMIC_SPECIES
Pt 195.084 Pt.pbe-n-kjpaw_psl.1.0.0.UPF
H 1.008 H.pbe-kjpaw_psl.1.0.0.UPF

K_POINTS automatic
5 5 1  0 0 0

CELL_PARAMETERS angstrom
8.46831000000000 0.00000000000000 0.00000000000000
4.23415500000000 7.33377158712180 0.00000000000000
0.00000000000000 0.00000000000000 24.96566199000000

ATOMIC_POSITIONS angstrom
Pt 0.0000000000 0.0000000000 8.5000000000   0 0 0
Pt 2.8284271247 0.0000000000 8.5000000000   0 0 0
Pt 5.6568542495 0.0000000000 8.5000000000   0 0 0
Pt 1.4142135624 2.4494897428 8.5000000000   0 0 0
Pt 4.2426406871 2.4494897428 8.5000000000   0 0 0
Pt 7.0710678119 2.4494897428 8.5000000000   0 0 0
Pt 2.8284271247 4.8989794856 8.5000000000   0 0 0
Pt 5.6568542495 4.8989794856 8.5000000000   0 0 0
Pt 8.4852813742 4.8989794856 8.5000000000   0 0 0
Pt 1.4142135624 0.8164965809 10.8094010768   0 0 0
Pt 4.2426406871 0.8164965809 10.8094010768   0 0 0
Pt 7.0710678119 0.8164965809 10.8094010768   0 0 0
Pt 2.8284271247 3.2659863237 10.8094010768   0 0 0
Pt 5.6568542495 3.2659863237 10.8094010768   0 0 0
Pt 8.4852813742 3.2659863237 10.8094010768   0 0 0
Pt 4.2426406871 5.7154760665 10.8094010768   0 0 0
Pt 7.0710678119 5.7154760665 10.8094010768   0 0 0
Pt 9.8994949366 5.7154760665 10.8094010768   0 0 0
Pt 0.0223831007 1.6433709021 13.1058520321  
Pt 2.8358588577 1.6381495416 13.1166164314  
Pt 5.6617117828 1.6401103281 13.0941374842  
Pt 1.4269535974 4.0772798172 13.1082870105  
Pt 4.2505123957 4.0843807459 13.0942150056  
Pt 7.0740691096 4.0850685809 13.0933335321  
Pt 2.8387974952 6.5290038141 13.0914845790  
Pt 5.6677685428 6.5327024937 13.1059688078  
Pt 8.4779742047 6.5321346996 13.1083641776  
Pt 0.0089230628 0.0070461679 15.4199926889  
Pt 2.8621216874 -0.0010385271 15.5007437731  
Pt 5.6782836540 0.0141961214 15.4263526300  
Pt 1.4284796135 2.4819844843 15.5006723580  
Pt 4.2948585457 2.4815825342 15.4409285411  
Pt 7.0843411989 2.4608415820 15.4280388666  
Pt 2.8497648263 4.9132387840 15.4262457263  
Pt 5.6716479906 4.9075175892 15.4282746885  
Pt 8.4947213973 4.9062225987 15.4307981665  
H 2.4956096109 1.4427604013 16.4599612492  

