Pt H                                    
   1.00000000000000     
     8.4683100000000007    0.0000000000000000    0.0000000000000000
     4.2341550000000012    7.3337715871217997    0.0000000000000000
     0.0000000000000000    0.0000000000000000   24.9656619900000010
  Pt/3ed90460ade  H/030f79b5d3ab
              36               1
Selective dynamics
Direct
  0.0000000000000000  0.0000000000000000  0.3404676392480468   F   F   F
  0.3340013680115845  0.0000000000000000  0.3404676392480468   F   F   F
  0.6680027360231691  0.0000000000000000  0.3404676392480468   F   F   F
  0.0000000000000000  0.3340013680115845  0.3404676392480468   F   F   F
  0.3340013680115845  0.3340013680115845  0.3404676392480468   F   F   F
  0.6680027360231691  0.3340013680115845  0.3404676392480468   F   F   F
  0.0000000000000000  0.6680027360231691  0.3404676392480468   F   F   F
  0.3340013680115845  0.6680027360231691  0.3404676392480468   F   F   F
  0.6680027360231691  0.6680027360231691  0.3404676392480468   F   F   F
  0.1113337893371948  0.1113337893371948  0.4329707372105034   F   F   F
  0.4453351573487794  0.1113337893371948  0.4329707372105034   F   F   F
  0.7793365253603639  0.1113337893371948  0.4329707372105034   F   F   F
  0.1113337893371948  0.4453351573487794  0.4329707372105034   F   F   F
  0.4453351573487794  0.4453351573487794  0.4329707372105034   F   F   F
  0.7793365253603639  0.4453351573487794  0.4329707372105034   F   F   F
  0.1113337893371948  0.7793365253603639  0.4329707372105034   F   F   F
  0.4453351573487794  0.7793365253603639  0.4329707372105034   F   F   F
  0.7793365253603639  0.7793365253603639  0.4329707372105034   F   F   F
  0.8926247481486342  0.2243038841214826  0.5258239057579601   T   T   T
  0.2239111394718307  0.2234473739774359  0.5252657492100710   T   T   T
  0.5586084942402039  0.2232675653930585  0.5241913582124837   T   T   T
  0.8928752205567960  0.5540956897639191  0.5258882832401426   T   T   T
  0.2248735392562935  0.5562995089289586  0.5243785449120253   T   T   T
  0.5585489011247162  0.5564249005692687  0.5244441134428328   T   T   T
  0.8922205654844220  0.8896654507581303  0.5244198029262535   T   T   T
  0.2250791777059646  0.8898205898212623  0.5245728255194066   T   T   T
  0.5588762873999187  0.8893042561076641  0.5243260504819887   T   T   T
  0.0045934683929119  0.9998802789342278  0.6178244019910508   T   T   T
  0.3393120131877225  0.9993987593564313  0.6177098783473340   T   T   T
  0.6714477014027977  0.0005740305448683  0.6175264698921339   T   T   T
  0.0068475619500035  0.3326440003811939  0.6233717370593581   T   T   T
  0.3394236633609609  0.3336042812862416  0.6175077201142187   T   T   T
  0.6714198969615168  0.3336065421244427  0.6177684930421918   T   T   T
  0.0045113186509340  0.6678734341881523  0.6177348274824439   T   T   T
  0.3382873048461761  0.6669051139599631  0.6174110155359642   T   T   T
  0.6712705175957154  0.6676496452838734  0.6178373860357738   T   T   T
  0.0327768279304834  0.3199170401270308  0.6851273879490591   T   T   T
 
  0.00000000E+00  0.00000000E+00  0.00000000E+00
  0.00000000E+00  0.00000000E+00  0.00000000E+00
  0.00000000E+00  0.00000000E+00  0.00000000E+00
  0.00000000E+00  0.00000000E+00  0.00000000E+00
  0.00000000E+00  0.00000000E+00  0.00000000E+00
  0.00000000E+00  0.00000000E+00  0.00000000E+00
  0.00000000E+00  0.00000000E+00  0.00000000E+00
  0.00000000E+00  0.00000000E+00  0.00000000E+00
  0.00000000E+00  0.00000000E+00  0.00000000E+00
  0.00000000E+00  0.00000000E+00  0.00000000E+00
  0.00000000E+00  0.00000000E+00  0.00000000E+00
  0.00000000E+00  0.00000000E+00  0.00000000E+00
  0.00000000E+00  0.00000000E+00  0.00000000E+00
  0.00000000E+00  0.00000000E+00  0.00000000E+00
  0.00000000E+00  0.00000000E+00  0.00000000E+00
  0.00000000E+00  0.00000000E+00  0.00000000E+00
  0.00000000E+00  0.00000000E+00  0.00000000E+00
  0.00000000E+00  0.00000000E+00  0.00000000E+00
  0.00000000E+00  0.00000000E+00  0.00000000E+00
  0.00000000E+00  0.00000000E+00  0.00000000E+00
  0.00000000E+00  0.00000000E+00  0.00000000E+00
  0.00000000E+00  0.00000000E+00  0.00000000E+00
  0.00000000E+00  0.00000000E+00  0.00000000E+00
  0.00000000E+00  0.00000000E+00  0.00000000E+00
  0.00000000E+00  0.00000000E+00  0.00000000E+00
  0.00000000E+00  0.00000000E+00  0.00000000E+00
  0.00000000E+00  0.00000000E+00  0.00000000E+00
  0.00000000E+00  0.00000000E+00  0.00000000E+00
  0.00000000E+00  0.00000000E+00  0.00000000E+00
  0.00000000E+00  0.00000000E+00  0.00000000E+00
  0.00000000E+00  0.00000000E+00  0.00000000E+00
  0.00000000E+00  0.00000000E+00  0.00000000E+00
  0.00000000E+00  0.00000000E+00  0.00000000E+00
  0.00000000E+00  0.00000000E+00  0.00000000E+00
  0.00000000E+00  0.00000000E+00  0.00000000E+00
  0.00000000E+00  0.00000000E+00  0.00000000E+00
  0.00000000E+00  0.00000000E+00  0.00000000E+00
