Pt H 
 1.0000000000000000
     8.4683100000000007    0.0000000000000000    0.0000000000000000
     4.2341550000000012    7.3337715871217997    0.0000000000000000
     0.0000000000000000    0.0000000000000000   24.9656619900000010
 Pt  H  
  36   1
Selective dynamics
Cartesian
  0.0000000000000000  0.0000000000000000  8.5000000000000000   F   F   F
  2.8284271247461903  0.0000000000000000  8.5000000000000000   F   F   F
  5.6568542494923806  0.0000000000000000  8.5000000000000000   F   F   F
  1.4142135623730951  2.4494897427831779  8.5000000000000000   F   F   F
  4.2426406871192857  2.4494897427831779  8.5000000000000000   F   F   F
  7.0710678118654755  2.4494897427831779  8.5000000000000000   F   F   F
  2.8284271247461903  4.8989794855663558  8.5000000000000000   F   F   F
  5.6568542494923806  4.8989794855663558  8.5000000000000000   F   F   F
  8.4852813742385713  4.8989794855663558  8.5000000000000000   F   F   F
  1.4142135623730951  0.8164965809277259 10.8094010767585029   F   F   F
  4.2426406871192848  0.8164965809277259 10.8094010767585029   F   F   F
  7.0710678118654755  0.8164965809277259 10.8094010767585029   F   F   F
  2.8284271247461903  3.2659863237109037 10.8094010767585029   F   F   F
  5.6568542494923806  3.2659863237109037 10.8094010767585029   F   F   F
  8.4852813742385713  3.2659863237109037 10.8094010767585029   F   F   F
  4.2426406871192857  5.7154760664940820 10.8094010767585029   F   F   F
  7.0710678118654755  5.7154760664940820 10.8094010767585029   F   F   F
  9.8994949366116671  5.7154760664940820 10.8094010767585029   F   F   F
  0.0404504934669310  1.6449934522511778 13.1275418974148241   T   T   T
  2.8422597572641095  1.6387120024926729 13.1136071497027267   T   T   T
  5.6758193762060944  1.6373933274054904 13.0867842672119252   T   T   T
  1.4389611942856559  4.0636112261372634 13.1291491238747522   T   T   T
  4.2597571884485816  4.0797735325129976 13.0914575070816230   T   T   T
  7.0859545197532920  4.0806931261619788 13.0930944688590500   T   T   T
  2.8542717535521924  6.5246032048138822 13.0924875407191941   T   T   T
  5.6736785508538334  6.5257409592671580 13.0963078510567996   T   T   T
  8.4981897158711899  6.5219542857488904 13.0901469488850726   T   T   T
  0.0383919967771202 -0.0008780069505403 15.4243951892823983   T   T   T
  2.8708535683205691 -0.0044093615488177 15.4215360307034839   T   T   T
  5.6884578185680406  0.0042098089000957 15.4169571172049569   T   T   T
  1.4664535347708541  2.4395351186221093 15.5628880815430417   T   T   T
  4.2868770383057955  2.4465775994392094 15.4164890165870521   T   T   T
  7.0983336360071210  2.4465941799102051 15.4229993853631075   T   T   T
  2.8660828855798024  4.8980312154425185 15.4221589023777241   T   T   T
  5.6885013893010941  4.8909297760658266 15.4140747227735169   T   T   T
  8.5114589206879003  4.8963899987348070 15.4247193445541857   T   T   T
  1.6321426747710368  2.3461984991197298 17.1046587876278764   T   T   T
