&CONTROL
   tprnfor          = .true.
   pseudo_dir       = '/users/kbadger1/espresso/pseudo/pslibrary.1.0.0/pbe/PSEUDOPOTENTIALS/'
/
&SYSTEM
   ecutwfc          = 40
   ecutrho          = 410
   nosym            = .true.
   occupations      = 'smearing'
   degauss          = 0.02
   smearing         = 'marzari-vanderbilt'
   nspin            = 1
   input_dft        = 'beef-vdw'
   ntyp             = 2
   nat              = 37
   ibrav            = 0
/
&ELECTRONS
   mixing_mode      = 'local-TF'
/
&IONS
/
&CELL
/
&FCP
/
&RISM
/
ATOMIC_SPECIES
Pt 195.084 Pt.pbe-n-kjpaw_psl.1.0.0.UPF
H 1.008 H.pbe-kjpaw_psl.1.0.0.UPF

K_POINTS automatic
5 5 1  0 0 0

CELL_PARAMETERS angstrom
8.48528137423857 0.00000000000000 0.00000000000000
4.24264068711929 7.34846922834953 0.00000000000000
0.00000000000000 0.00000000000000 23.92820323027551

ATOMIC_POSITIONS angstrom
Pt 0.0000000000 0.0000000000 8.5000000000   0 0 0
Pt 2.8284271247 0.0000000000 8.5000000000   0 0 0
Pt 5.6568542495 0.0000000000 8.5000000000   0 0 0
Pt 1.4142135624 2.4494897428 8.5000000000   0 0 0
Pt 4.2426406871 2.4494897428 8.5000000000   0 0 0
Pt 7.0710678119 2.4494897428 8.5000000000   0 0 0
Pt 2.8284271247 4.8989794856 8.5000000000   0 0 0
Pt 5.6568542495 4.8989794856 8.5000000000   0 0 0
Pt 8.4852813742 4.8989794856 8.5000000000   0 0 0
Pt 1.4142135624 0.8164965809 10.8094010768   0 0 0
Pt 4.2426406871 0.8164965809 10.8094010768   0 0 0
Pt 7.0710678119 0.8164965809 10.8094010768   0 0 0
Pt 2.8284271247 3.2659863237 10.8094010768   0 0 0
Pt 5.6568542495 3.2659863237 10.8094010768   0 0 0
Pt 8.4852813742 3.2659863237 10.8094010768   0 0 0
Pt 4.2426406871 5.7154760665 10.8094010768   0 0 0
Pt 7.0710678119 5.7154760665 10.8094010768   0 0 0
Pt 9.8994949366 5.7154760665 10.8094010768   0 0 0
Pt 0.0049178459 1.6339197583 13.1018139936  
Pt 2.8246447254 1.6314580739 13.1093376861  
Pt 5.6580698748 1.6324155694 13.0867780472  
Pt 1.4128734423 4.0729466248 13.1027491884  
Pt 4.2422395978 4.0847575919 13.0866969841  
Pt 7.0719260266 4.0835716788 13.0887314583  
Pt 2.8273617675 6.5319468239 13.0886526745  
Pt 5.6595898867 6.5366589054 13.1018494003  
Pt 8.4758048825 6.5364817299 13.1027812478  
Pt -0.0312261426 -0.0166682969 15.4274206614  
Pt 2.8569933416 -0.0144908196 15.4812078452  
Pt 5.6609601190 0.0034658273 15.4197335724  
Pt 1.4147524748 2.4834524348 15.4811358830  
Pt 4.2673166459 2.4651937834 15.4115443151  
Pt 7.0670900135 2.4555225846 15.4164602981  
Pt 2.8323256349 4.9028093268 15.4196480101  
Pt 5.6588874855 4.8945349066 15.4164750101  
Pt 8.4868566262 4.9012160772 15.4194958969  
H 1.7604171264 1.0177325438 16.4289035276  

