&CONTROL
   tprnfor          = .true.
   pseudo_dir       = '/users/kbadger1/espresso/pseudo/pslibrary.1.0.0/pbe/PSEUDOPOTENTIALS/'
/
&SYSTEM
   ecutwfc          = 40
   ecutrho          = 410
   nosym            = .true.
   occupations      = 'smearing'
   degauss          = 0.001
   smearing         = 'marzari-vanderbilt'
   nspin            = 1
   input_dft        = 'beef-vdw'
   ntyp             = 3
   nat              = 39
   ibrav            = 0
/
&ELECTRONS
   conv_thr         = 1e-08
   mixing_mode      = 'local-TF'
/
&IONS
/
&CELL
/
&FCP
/
&RISM
/
ATOMIC_SPECIES
Pt 195.084 Pt.pbe-n-kjpaw_psl.1.0.0.UPF
O 15.999 O.pbe-nl-kjpaw_psl.1.0.0.UPF
H 1.008 H.pbe-kjpaw_psl.1.0.0.UPF

K_POINTS automatic
5 5 1  0 0 0

CELL_PARAMETERS angstrom
8.48528137423857 0.00000000000000 0.00000000000000
4.24264068711929 7.34846922834953 0.00000000000000
0.00000000000000 0.00000000000000 23.92820323027551

ATOMIC_POSITIONS angstrom
Pt 0.0000000000 0.0000000000 8.5000000000   0 0 0
Pt 2.8284271247 0.0000000000 8.5000000000   0 0 0
Pt 5.6568542495 0.0000000000 8.5000000000   0 0 0
Pt 1.4142135624 2.4494897428 8.5000000000   0 0 0
Pt 4.2426406871 2.4494897428 8.5000000000   0 0 0
Pt 7.0710678119 2.4494897428 8.5000000000   0 0 0
Pt 2.8284271247 4.8989794856 8.5000000000   0 0 0
Pt 5.6568542495 4.8989794856 8.5000000000   0 0 0
Pt 8.4852813742 4.8989794856 8.5000000000   0 0 0
Pt 1.4142135624 0.8164965809 10.8094010768   0 0 0
Pt 4.2426406871 0.8164965809 10.8094010768   0 0 0
Pt 7.0710678119 0.8164965809 10.8094010768   0 0 0
Pt 2.8284271247 3.2659863237 10.8094010768   0 0 0
Pt 5.6568542495 3.2659863237 10.8094010768   0 0 0
Pt 8.4852813742 3.2659863237 10.8094010768   0 0 0
Pt 4.2426406871 5.7154760665 10.8094010768   0 0 0
Pt 7.0710678119 5.7154760665 10.8094010768   0 0 0
Pt 9.8994949366 5.7154760665 10.8094010768   0 0 0
Pt -0.0644287730 1.6826909760 13.0858029568  
Pt 2.7742886401 1.7004373997 13.1402271261  
Pt 5.5786235254 1.6852209043 13.1374592448  
Pt 1.3456159913 4.1400071708 13.1019291537  
Pt 4.1674091830 4.1216588560 13.1444811774  
Pt 7.0058270501 4.1382169938 13.0936733021  
Pt 2.7488280156 6.5962948318 13.1151306507  
Pt 5.5847900305 6.5849938433 13.0840178975  
Pt 8.4232208356 6.5957138180 13.1181802914  
Pt -0.1298648089 0.1082367735 15.4355428759  
Pt 2.6735451728 0.0904324650 15.4152711891  
Pt 5.5289095598 0.0938765828 15.5313649504  
Pt 1.2574476961 2.5601019003 15.4205030421  
Pt 4.1093809032 2.5750868557 15.5577368275  
Pt 6.9548826750 2.5601165107 15.4128866706  
Pt 2.6849359301 5.0258419812 15.4351334290  
Pt 5.5318563023 5.0229294051 15.4252149478  
Pt 8.3468999320 5.0049011681 15.4352988748  
O 4.0379418262 2.5006447063 17.5699274511  
H 4.9280272388 2.7189750888 17.8942831275  
H 5.3552536656 0.2360727490 17.0687559052  

