&CONTROL
   tprnfor          = .true.
   pseudo_dir       = '/users/kbadger1/espresso/pseudo/pslibrary.1.0.0/pbe/PSEUDOPOTENTIALS/'
/
&SYSTEM
   ecutwfc          = 40
   ecutrho          = 410
   nosym            = .true.
   occupations      = 'smearing'
   degauss          = 0.02
   smearing         = 'marzari-vanderbilt'
   nspin            = 1
   input_dft        = 'beef-vdw'
   ntyp             = 2
   nat              = 37
   ibrav            = 0
/
&ELECTRONS
   conv_thr         = 1e-08
   mixing_mode      = 'local-TF'
/
&IONS
/
&CELL
/
&FCP
/
&RISM
/
ATOMIC_SPECIES
Pt 195.084 Pt.pbe-n-kjpaw_psl.1.0.0.UPF
H 1.008 H.pbe-kjpaw_psl.1.0.0.UPF

K_POINTS automatic
5 5 1  0 0 0

CELL_PARAMETERS angstrom
8.48528137423857 0.00000000000000 0.00000000000000
4.24264068711929 7.34846922834953 0.00000000000000
0.00000000000000 0.00000000000000 23.92820323027551

ATOMIC_POSITIONS angstrom
Pt 0.0000000000 0.0000000000 8.5000000000   0 0 0
Pt 2.8284271247 0.0000000000 8.5000000000   0 0 0
Pt 5.6568542495 0.0000000000 8.5000000000   0 0 0
Pt 1.4142135624 2.4494897428 8.5000000000   0 0 0
Pt 4.2426406871 2.4494897428 8.5000000000   0 0 0
Pt 7.0710678119 2.4494897428 8.5000000000   0 0 0
Pt 2.8284271247 4.8989794856 8.5000000000   0 0 0
Pt 5.6568542495 4.8989794856 8.5000000000   0 0 0
Pt 8.4852813742 4.8989794856 8.5000000000   0 0 0
Pt 1.4142135624 0.8164965809 10.8094010768   0 0 0
Pt 4.2426406871 0.8164965809 10.8094010768   0 0 0
Pt 7.0710678119 0.8164965809 10.8094010768   0 0 0
Pt 2.8284271247 3.2659863237 10.8094010768   0 0 0
Pt 5.6568542495 3.2659863237 10.8094010768   0 0 0
Pt 8.4852813742 3.2659863237 10.8094010768   0 0 0
Pt 4.2426406871 5.7154760665 10.8094010768   0 0 0
Pt 7.0710678119 5.7154760665 10.8094010768   0 0 0
Pt 9.8994949366 5.7154760665 10.8094010768   0 0 0
Pt 0.0027133780 1.6193922923 13.1010981934  
Pt 2.8260136721 1.6195449884 13.1006903892  
Pt 5.6570494996 1.6200758707 13.0875366762  
Pt 1.4145720838 4.0446102604 13.1237447048  
Pt 4.2422185845 4.0705819239 13.0894234824  
Pt 7.0719025027 4.0706207892 13.0893762630  
Pt 2.8297660454 6.5162824540 13.0923595074  
Pt 5.6568994007 6.5225678914 13.0971727609  
Pt 8.4849194750 6.5160123410 13.0915939886  
Pt -0.0206472757 -0.0396649924 15.4338813043  
Pt 2.8507039514 -0.0400526045 15.4311284774  
Pt 5.6573514372 -0.0237790770 15.4201379164  
Pt 1.4141837290 2.4324785769 15.5029965213  
Pt 4.2532466100 2.4281735281 15.4138326485  
Pt 7.0602044939 2.4285972366 15.4137496828  
Pt 2.8311315782 4.8777583720 15.4206020509  
Pt 5.6571520027 4.8702648307 15.4156473186  
Pt 8.4833669517 4.8776471105 15.4204724175  
H 1.3976360265 1.3820368562 16.7177228503  

