&CONTROL
   tprnfor          = .true.
   pseudo_dir       = '/users/kbadger1/espresso/pseudo/pslibrary.1.0.0/pbe/PSEUDOPOTENTIALS/'
/
&SYSTEM
   ecutwfc          = 40
   ecutrho          = 410
   nosym            = .true.
   occupations      = 'smearing'
   degauss          = 0.02
   smearing         = 'marzari-vanderbilt'
   nspin            = 1
   input_dft        = 'beef-vdw'
   ntyp             = 2
   nat              = 37
   ibrav            = 0
/
&ELECTRONS
   mixing_mode      = 'local-TF'
/
&IONS
/
&CELL
/
&FCP
/
&RISM
/
ATOMIC_SPECIES
Pt 195.084 Pt.pbe-n-kjpaw_psl.1.0.0.UPF
H 1.008 H.pbe-kjpaw_psl.1.0.0.UPF

K_POINTS automatic
5 5 1  0 0 0

CELL_PARAMETERS angstrom
8.46831000000000 0.00000000000000 0.00000000000000
4.23415500000000 7.33377158712180 0.00000000000000
0.00000000000000 0.00000000000000 24.96566199000000

ATOMIC_POSITIONS angstrom
Pt 0.0000000000 0.0000000000 8.5000000000   0 0 0
Pt 2.8284271247 0.0000000000 8.5000000000   0 0 0
Pt 5.6568542495 0.0000000000 8.5000000000   0 0 0
Pt 1.4142135624 2.4494897428 8.5000000000   0 0 0
Pt 4.2426406871 2.4494897428 8.5000000000   0 0 0
Pt 7.0710678119 2.4494897428 8.5000000000   0 0 0
Pt 2.8284271247 4.8989794856 8.5000000000   0 0 0
Pt 5.6568542495 4.8989794856 8.5000000000   0 0 0
Pt 8.4852813742 4.8989794856 8.5000000000   0 0 0
Pt 1.4142135624 0.8164965809 10.8094010768   0 0 0
Pt 4.2426406871 0.8164965809 10.8094010768   0 0 0
Pt 7.0710678119 0.8164965809 10.8094010768   0 0 0
Pt 2.8284271247 3.2659863237 10.8094010768   0 0 0
Pt 5.6568542495 3.2659863237 10.8094010768   0 0 0
Pt 8.4852813742 3.2659863237 10.8094010768   0 0 0
Pt 4.2426406871 5.7154760665 10.8094010768   0 0 0
Pt 7.0710678119 5.7154760665 10.8094010768   0 0 0
Pt 9.8994949366 5.7154760665 10.8094010768   0 0 0
Pt 0.0149962019 1.6245820251 13.1082131537  
Pt 2.8320324568 1.6234963836 13.1055250655  
Pt 5.6580946096 1.6245567718 13.0909582143  
Pt 1.4242971194 4.0456115852 13.1306648498  
Pt 4.2458252256 4.0705693848 13.0930238393  
Pt 7.0704907587 4.0708463527 13.0921021657  
Pt 2.8375946971 6.5117482156 13.1022313062  
Pt 5.6585621736 6.5172176551 13.1037094560  
Pt 8.4814731684 6.5107386997 13.0986019378  
Pt -0.0062285427 -0.0294942850 15.4453451634  
Pt 2.8575888845 -0.0295507540 15.4428744654  
Pt 5.6592133056 -0.0132101731 15.4308929070  
Pt 1.4255735431 2.4363490533 15.5168456977  
Pt 4.2582706991 2.4334260932 15.4220533704  
Pt 7.0604951957 2.4337468060 15.4223478640  
Pt 2.8393664042 4.8769379755 15.4317326111  
Pt 5.6595940701 4.8702982226 15.4241646888  
Pt 8.4795613075 4.8772155563 15.4306218344  
H 1.4214421547 1.3933463507 16.7360711028  

