Pt H 
 1.0000000000000000
     8.4683100000000007    0.0000000000000000    0.0000000000000000
     4.2341550000000012    7.3337715871217997    0.0000000000000000
     0.0000000000000000    0.0000000000000000   24.9656619900000010
 Pt  H  
  36   1
Selective dynamics
Cartesian
  0.0000000000000000  0.0000000000000000  8.5000000000000000   F   F   F
  2.8284271247461903  0.0000000000000000  8.5000000000000000   F   F   F
  5.6568542494923806  0.0000000000000000  8.5000000000000000   F   F   F
  1.4142135623730951  2.4494897427831779  8.5000000000000000   F   F   F
  4.2426406871192857  2.4494897427831779  8.5000000000000000   F   F   F
  7.0710678118654755  2.4494897427831779  8.5000000000000000   F   F   F
  2.8284271247461903  4.8989794855663558  8.5000000000000000   F   F   F
  5.6568542494923806  4.8989794855663558  8.5000000000000000   F   F   F
  8.4852813742385713  4.8989794855663558  8.5000000000000000   F   F   F
  1.4142135623730951  0.8164965809277259 10.8094010767585029   F   F   F
  4.2426406871192848  0.8164965809277259 10.8094010767585029   F   F   F
  7.0710678118654755  0.8164965809277259 10.8094010767585029   F   F   F
  2.8284271247461903  3.2659863237109037 10.8094010767585029   F   F   F
  5.6568542494923806  3.2659863237109037 10.8094010767585029   F   F   F
  8.4852813742385713  3.2659863237109037 10.8094010767585029   F   F   F
  4.2426406871192857  5.7154760664940820 10.8094010767585029   F   F   F
  7.0710678118654755  5.7154760664940820 10.8094010767585029   F   F   F
  9.8994949366116671  5.7154760664940820 10.8094010767585029   F   F   F
  0.0176826959744426  1.6383242142422259 13.1107832143731144   T   T   T
  2.8346365523248176  1.6377416536646625 13.1088686052503469   T   T   T
  5.6599963419239110  1.6363221050612955 13.0859475779996242   T   T   T
  1.4276319275405676  4.0709579480385445 13.1139719986987870   T   T   T
  4.2487546077798060  4.0836283611490254 13.0879903116595884   T   T   T
  7.0712924855050803  4.0839048986412596 13.0869279101595630   T   T   T
  2.8438061480509562  6.5304274722309925 13.1026650236921434   T   T   T
  5.6605251014253541  6.5327433129838797 13.1088834769278435   T   T   T
  8.4795388592985077  6.5292315020176730 13.0987553676540429   T   T   T
 -0.0033948351938007 -0.0007874868193915 15.4596735532440483   T   T   T
  2.8580131129821607 -0.0006486282418559 15.4555187534994474   T   T   T
  5.6612150380055244  0.0147087315077160 15.4254240632245399   T   T   T
  1.4276951837241696  2.5016511601623077 15.4787035608612360   T   T   T
  4.2664742003188802  2.4613566135421054 15.4163779483174803   T   T   T
  7.0567462791140185  2.4610316302368913 15.4148385860567476   T   T   T
  2.8457685132696580  4.9096647949238763 15.4224614177760504   T   T   T
  5.6610576755165392  4.8941120702891512 15.4171867294949969   T   T   T
  8.4778252618331322  4.9098604018038916 15.4206446820169703   T   T   T
  1.4263521073843952  1.2126395286936846 16.5473792500990875   T   T   T
