&CONTROL
   tprnfor          = .true.
   pseudo_dir       = '/users/kbadger1/espresso/pseudo/pslibrary.1.0.0/pbe/PSEUDOPOTENTIALS/'
/
&SYSTEM
   ecutwfc          = 40
   ecutrho          = 410
   nosym            = .true.
   occupations      = 'smearing'
   degauss          = 0.02
   smearing         = 'marzari-vanderbilt'
   nspin            = 1
   input_dft        = 'beef-vdw'
   ntyp             = 3
   nat              = 38
   ibrav            = 0
/
&ELECTRONS
   mixing_mode      = 'local-TF'
/
&IONS
/
&CELL
/
&FCP
/
&RISM
/
ATOMIC_SPECIES
Pt 195.084 Pt.pbe-n-kjpaw_psl.1.0.0.UPF
H 1.008 H.pbe-kjpaw_psl.1.0.0.UPF
C 12.011 C.pbe-n-kjpaw_psl.1.0.0.UPF

K_POINTS automatic
5 5 1  0 0 0

CELL_PARAMETERS angstrom
8.46831000000000 0.00000000000000 0.00000000000000
4.23415500000000 7.33377158712180 0.00000000000000
0.00000000000000 0.00000000000000 24.96566199000000

ATOMIC_POSITIONS angstrom
Pt 0.0000000000 0.0000000000 8.5000000000   0 0 0
Pt 2.8284271247 0.0000000000 8.5000000000   0 0 0
Pt 5.6568542495 0.0000000000 8.5000000000   0 0 0
Pt 1.4142135624 2.4494897428 8.5000000000   0 0 0
Pt 4.2426406871 2.4494897428 8.5000000000   0 0 0
Pt 7.0710678119 2.4494897428 8.5000000000   0 0 0
Pt 2.8284271247 4.8989794856 8.5000000000   0 0 0
Pt 5.6568542495 4.8989794856 8.5000000000   0 0 0
Pt 8.4852813742 4.8989794856 8.5000000000   0 0 0
Pt 1.4142135624 0.8164965809 10.8094010768   0 0 0
Pt 4.2426406871 0.8164965809 10.8094010768   0 0 0
Pt 7.0710678119 0.8164965809 10.8094010768   0 0 0
Pt 2.8284271247 3.2659863237 10.8094010768   0 0 0
Pt 5.6568542495 3.2659863237 10.8094010768   0 0 0
Pt 8.4852813742 3.2659863237 10.8094010768   0 0 0
Pt 4.2426406871 5.7154760665 10.8094010768   0 0 0
Pt 7.0710678119 5.7154760665 10.8094010768   0 0 0
Pt 9.8994949366 5.7154760665 10.8094010768   0 0 0
Pt 0.0159606604 1.6647032526 13.1192364489  
Pt 2.8286777079 1.6637140917 13.1168140668  
Pt 5.6567837527 1.6632018671 13.0909892225  
Pt 1.4230032187 4.1165234587 13.1010566410  
Pt 4.2442850140 4.1127853909 13.0924099437  
Pt 7.0696320551 4.1129429456 13.0916111931  
Pt 2.8505057575 6.5683856951 13.1221898833  
Pt 5.6571906663 6.5649093264 13.1304431941  
Pt 8.4651069787 6.5674446182 13.1189858426  
Pt -0.0231547737 0.0633471783 15.5808406445  
Pt 2.8666175580 0.0640202957 15.5795605388  
Pt 5.6558448498 0.0759710730 15.4359516159  
Pt 1.4224482796 2.5990032557 15.5044916535  
Pt 4.2741301772 2.5342500191 15.4228368050  
Pt 7.0387627099 2.5345805973 15.4232424317  
Pt 2.8397323153 4.9743904622 15.4318173027  
Pt 5.6566931098 4.9367408814 15.4286494905  
Pt 8.4728931142 4.9748481198 15.4308446315  
H 1.4221582466 1.1008516570 17.7112412233  
C 1.4213332793 0.9634185311 16.6282572687  

