&CONTROL
   tprnfor          = .true.
   pseudo_dir       = '/users/kbadger1/espresso/pseudo/pslibrary.1.0.0/pbe/PSEUDOPOTENTIALS/'
/
&SYSTEM
   ecutwfc          = 40
   ecutrho          = 410
   nosym            = .true.
   occupations      = 'smearing'
   degauss          = 0.02
   smearing         = 'marzari-vanderbilt'
   nspin            = 1
   input_dft        = 'beef-vdw'
   ntyp             = 3
   nat              = 38
   ibrav            = 0
/
&ELECTRONS
   mixing_mode      = 'local-TF'
/
&IONS
/
&CELL
/
&FCP
/
&RISM
/
ATOMIC_SPECIES
Pt 195.084 Pt.pbe-n-kjpaw_psl.1.0.0.UPF
C 12.011 C.pbe-n-kjpaw_psl.1.0.0.UPF
H 1.008 H.pbe-kjpaw_psl.1.0.0.UPF

K_POINTS automatic
5 5 1  0 0 0

CELL_PARAMETERS angstrom
8.48528137423857 0.00000000000000 0.00000000000000
4.24264068711929 7.34846922834953 0.00000000000000
0.00000000000000 0.00000000000000 23.92820323027551

ATOMIC_POSITIONS angstrom
Pt 0.0000000000 0.0000000000 8.5000000000   0 0 0
Pt 2.8284271247 0.0000000000 8.5000000000   0 0 0
Pt 5.6568542495 0.0000000000 8.5000000000   0 0 0
Pt 1.4142135624 2.4494897428 8.5000000000   0 0 0
Pt 4.2426406871 2.4494897428 8.5000000000   0 0 0
Pt 7.0710678119 2.4494897428 8.5000000000   0 0 0
Pt 2.8284271247 4.8989794856 8.5000000000   0 0 0
Pt 5.6568542495 4.8989794856 8.5000000000   0 0 0
Pt 8.4852813742 4.8989794856 8.5000000000   0 0 0
Pt 1.4142135624 0.8164965809 10.8094010768   0 0 0
Pt 4.2426406871 0.8164965809 10.8094010768   0 0 0
Pt 7.0710678119 0.8164965809 10.8094010768   0 0 0
Pt 2.8284271247 3.2659863237 10.8094010768   0 0 0
Pt 5.6568542495 3.2659863237 10.8094010768   0 0 0
Pt 8.4852813742 3.2659863237 10.8094010768   0 0 0
Pt 4.2426406871 5.7154760665 10.8094010768   0 0 0
Pt 7.0710678119 5.7154760665 10.8094010768   0 0 0
Pt 9.8994949366 5.7154760665 10.8094010768   0 0 0
Pt 0.0039482921 1.6574528908 13.1116291503  
Pt 2.8221390032 1.6575811034 13.1114760775  
Pt 5.6556839181 1.6570020105 13.0875549467  
Pt 1.4131958669 4.1151252787 13.0925454033  
Pt 4.2407515845 4.1111918732 13.0884604218  
Pt 7.0706153415 4.1111592193 13.0886341512  
Pt 2.8431189029 6.5716215848 13.1117404009  
Pt 5.6555859807 6.5684477200 13.1217298088  
Pt 8.4682741595 6.5717248072 13.1117868651  
Pt -0.0348434608 0.0501741057 15.5667115171  
Pt 2.8585641536 0.0501874245 15.5662830340  
Pt 5.6545624618 0.0616399607 15.4239601663  
Pt 1.4117781068 2.5946231976 15.4896453344  
Pt 4.2693170274 2.5259017736 15.4132822367  
Pt 7.0395377105 2.5258689897 15.4135730628  
Pt 2.8323240830 4.9723878424 15.4189610160  
Pt 5.6544092481 4.9322169344 15.4189030923  
Pt 8.4766834174 4.9723624283 15.4191300641  
C 1.4120215663 0.9558928247 16.6076911768  
H 1.4120071941 1.1007122155 17.6898014067  

