&CONTROL
   tprnfor          = .true.
   pseudo_dir       = '/users/kbadger1/espresso/pseudo/pslibrary.1.0.0/pbe/PSEUDOPOTENTIALS/'
/
&SYSTEM
   ecutwfc          = 40
   ecutrho          = 410
   nosym            = .true.
   occupations      = 'smearing'
   degauss          = 0.001
   smearing         = 'marzari-vanderbilt'
   nspin            = 1
   input_dft        = 'beef-vdw'
   ntyp             = 3
   nat              = 38
   ibrav            = 0
/
&ELECTRONS
   mixing_mode      = 'local-TF'
/
&IONS
/
&CELL
/
&FCP
/
&RISM
/
ATOMIC_SPECIES
Pt 195.084 Pt.pbe-n-kjpaw_psl.1.0.0.UPF
C 12.011 C.pbe-n-kjpaw_psl.1.0.0.UPF
H 1.008 H.pbe-kjpaw_psl.1.0.0.UPF

K_POINTS automatic
5 5 1  0 0 0

CELL_PARAMETERS angstrom
8.48528137423857 0.00000000000000 0.00000000000000
4.24264068711929 7.34846922834953 0.00000000000000
0.00000000000000 0.00000000000000 23.92820323027551

ATOMIC_POSITIONS angstrom
Pt 0.0000000000 0.0000000000 8.5000000000   0 0 0
Pt 2.8284271247 0.0000000000 8.5000000000   0 0 0
Pt 5.6568542495 0.0000000000 8.5000000000   0 0 0
Pt 1.4142135624 2.4494897428 8.5000000000   0 0 0
Pt 4.2426406871 2.4494897428 8.5000000000   0 0 0
Pt 7.0710678119 2.4494897428 8.5000000000   0 0 0
Pt 2.8284271247 4.8989794856 8.5000000000   0 0 0
Pt 5.6568542495 4.8989794856 8.5000000000   0 0 0
Pt 8.4852813742 4.8989794856 8.5000000000   0 0 0
Pt 1.4142135624 0.8164965809 10.8094010768   0 0 0
Pt 4.2426406871 0.8164965809 10.8094010768   0 0 0
Pt 7.0710678119 0.8164965809 10.8094010768   0 0 0
Pt 2.8284271247 3.2659863237 10.8094010768   0 0 0
Pt 5.6568542495 3.2659863237 10.8094010768   0 0 0
Pt 8.4852813742 3.2659863237 10.8094010768   0 0 0
Pt 4.2426406871 5.7154760665 10.8094010768   0 0 0
Pt 7.0710678119 5.7154760665 10.8094010768   0 0 0
Pt 9.8994949366 5.7154760665 10.8094010768   0 0 0
Pt 0.0050738246 1.6678044343 13.1261799343  
Pt 2.8232824286 1.6677751344 13.1262701935  
Pt 5.6569577515 1.6667988784 13.0932407927  
Pt 1.4141503882 4.1243470242 13.1017987209  
Pt 4.2420046122 4.1220399709 13.0942030183  
Pt 7.0717721217 4.1220335874 13.0941481847  
Pt 2.8439717248 6.5822493519 13.1211270964  
Pt 5.6568647644 6.5787573452 13.1386528274  
Pt 8.4698048381 6.5821490627 13.1211195259  
Pt -0.0339760169 0.0642858158 15.5829811164  
Pt 2.8624529411 0.0642304292 15.5830201145  
Pt 5.6569121091 0.0808922472 15.4377460249  
Pt 1.4141857121 2.6155671344 15.5115288965  
Pt 4.2710110496 2.5412171978 15.4174666216  
Pt 7.0428505724 2.5412255516 15.4173737796  
Pt 2.8372425428 4.9870135468 15.4325596179  
Pt 5.6568967131 4.9456614588 15.4240025602  
Pt 8.4765046518 4.9869695048 15.4325344675  
C 1.4142468661 0.9706622864 16.6188676116  
H 1.4142805513 1.1086155505 17.7020035892  

