&CONTROL
   tprnfor          = .true.
   pseudo_dir       = '/users/kbadger1/espresso/pseudo/pslibrary.1.0.0/pbe/PSEUDOPOTENTIALS/'
/
&SYSTEM
   ecutwfc          = 40
   ecutrho          = 410
   nosym            = .true.
   occupations      = 'smearing'
   degauss          = 0.02
   smearing         = 'marzari-vanderbilt'
   nspin            = 1
   input_dft        = 'beef-vdw'
   ntyp             = 2
   nat              = 37
   ibrav            = 0
/
&ELECTRONS
   mixing_mode      = 'local-TF'
/
&IONS
/
&CELL
/
&FCP
/
&RISM
/
ATOMIC_SPECIES
Pt 195.084 Pt.pbe-n-kjpaw_psl.1.0.0.UPF
H 1.008 H.pbe-kjpaw_psl.1.0.0.UPF

K_POINTS automatic
5 5 1  0 0 0

CELL_PARAMETERS angstrom
8.46831000000000 0.00000000000000 0.00000000000000
4.23415500000000 7.33377158712180 0.00000000000000
0.00000000000000 0.00000000000000 24.96566199000000

ATOMIC_POSITIONS angstrom
Pt 0.0000000000 0.0000000000 8.5000000000   0 0 0
Pt 2.8284271247 0.0000000000 8.5000000000   0 0 0
Pt 5.6568542495 0.0000000000 8.5000000000   0 0 0
Pt 1.4142135624 2.4494897428 8.5000000000   0 0 0
Pt 4.2426406871 2.4494897428 8.5000000000   0 0 0
Pt 7.0710678119 2.4494897428 8.5000000000   0 0 0
Pt 2.8284271247 4.8989794856 8.5000000000   0 0 0
Pt 5.6568542495 4.8989794856 8.5000000000   0 0 0
Pt 8.4852813742 4.8989794856 8.5000000000   0 0 0
Pt 1.4142135624 0.8164965809 10.8094010768   0 0 0
Pt 4.2426406871 0.8164965809 10.8094010768   0 0 0
Pt 7.0710678119 0.8164965809 10.8094010768   0 0 0
Pt 2.8284271247 3.2659863237 10.8094010768   0 0 0
Pt 5.6568542495 3.2659863237 10.8094010768   0 0 0
Pt 8.4852813742 3.2659863237 10.8094010768   0 0 0
Pt 4.2426406871 5.7154760665 10.8094010768   0 0 0
Pt 7.0710678119 5.7154760665 10.8094010768   0 0 0
Pt 9.8994949366 5.7154760665 10.8094010768   0 0 0
Pt 0.0173937375 1.6385665203 13.1082000116  
Pt 2.8302716649 1.6345773855 13.1168598805  
Pt 5.6593308955 1.6357703815 13.0905077273  
Pt 1.4215832963 4.0702752435 13.1128570272  
Pt 4.2458332878 4.0840346206 13.0904087788  
Pt 7.0701049051 4.0823863748 13.0929109166  
Pt 2.8318408204 6.5245988383 13.0947629932  
Pt 5.6614481537 6.5303020656 13.1082745440  
Pt 8.4695313610 6.5304274736 13.1129131020  
Pt -0.0177020731 -0.0091952792 15.4255224105  
Pt 2.8585247814 -0.0024536303 15.5037552693  
Pt 5.6617105903 0.0105654510 15.4305882375  
Pt 1.4261370066 2.4783051650 15.5035979841  
Pt 4.2779846231 2.4710658259 15.4196112345  
Pt 7.0701715318 2.4567149549 15.4268631906  
Pt 2.8390595640 4.8994901355 15.4304182417  
Pt 5.6617627928 4.8961123607 15.4268378478  
Pt 8.4833716720 4.8988584216 15.4317088102  
H 1.9508498145 1.1274689676 16.5082688095  

