&CONTROL
   tprnfor          = .true.
   pseudo_dir       = '/users/kbadger1/espresso/pseudo/pslibrary.1.0.0/pbe/PSEUDOPOTENTIALS/'
/
&SYSTEM
   ecutwfc          = 40
   ecutrho          = 410
   nosym            = .true.
   occupations      = 'smearing'
   degauss          = 0.02
   smearing         = 'marzari-vanderbilt'
   nspin            = 1
   input_dft        = 'beef-vdw'
   ntyp             = 2
   nat              = 37
   ibrav            = 0
/
&ELECTRONS
   mixing_mode      = 'local-TF'
/
&IONS
/
&CELL
/
&FCP
/
&RISM
/
ATOMIC_SPECIES
Pt 195.084 Pt.pbe-n-kjpaw_psl.1.0.0.UPF
H 1.008 H.pbe-kjpaw_psl.1.0.0.UPF

K_POINTS automatic
5 5 1  0 0 0

CELL_PARAMETERS angstrom
8.48528137423857 0.00000000000000 0.00000000000000
4.24264068711929 7.34846922834953 0.00000000000000
0.00000000000000 0.00000000000000 23.92820323027551

ATOMIC_POSITIONS angstrom
Pt 0.0000000000 0.0000000000 8.5000000000   0 0 0
Pt 2.8284271247 0.0000000000 8.5000000000   0 0 0
Pt 5.6568542495 0.0000000000 8.5000000000   0 0 0
Pt 1.4142135624 2.4494897428 8.5000000000   0 0 0
Pt 4.2426406871 2.4494897428 8.5000000000   0 0 0
Pt 7.0710678119 2.4494897428 8.5000000000   0 0 0
Pt 2.8284271247 4.8989794856 8.5000000000   0 0 0
Pt 5.6568542495 4.8989794856 8.5000000000   0 0 0
Pt 8.4852813742 4.8989794856 8.5000000000   0 0 0
Pt 1.4142135624 0.8164965809 10.8094010768   0 0 0
Pt 4.2426406871 0.8164965809 10.8094010768   0 0 0
Pt 7.0710678119 0.8164965809 10.8094010768   0 0 0
Pt 2.8284271247 3.2659863237 10.8094010768   0 0 0
Pt 5.6568542495 3.2659863237 10.8094010768   0 0 0
Pt 8.4852813742 3.2659863237 10.8094010768   0 0 0
Pt 4.2426406871 5.7154760665 10.8094010768   0 0 0
Pt 7.0710678119 5.7154760665 10.8094010768   0 0 0
Pt 9.8994949366 5.7154760665 10.8094010768   0 0 0
Pt 0.0046972132 1.6340983678 13.1002989105  
Pt 2.8238005450 1.6309300037 13.1109159658  
Pt 5.6579305139 1.6319332852 13.0866852425  
Pt 1.4112257559 4.0703464587 13.1053293963  
Pt 4.2418048795 4.0848318037 13.0866218157  
Pt 7.0709377339 4.0829497191 13.0895214792  
Pt 2.8231557637 6.5294923029 13.0844946176  
Pt 5.6596576984 6.5363639229 13.1003223810  
Pt 8.4727577327 6.5362985542 13.1053372353  
Pt -0.0337489081 -0.0182595332 15.4123604068  
Pt 2.8499259878 -0.0113130180 15.4898645817  
Pt 5.6586085852 0.0017844270 15.4190217894  
Pt 1.4139763694 2.4756105509 15.4898565462  
Pt 4.2716496678 2.4675789860 15.4101197571  
Pt 7.0697889578 2.4531585838 15.4172423110  
Pt 2.8297545310 4.9014553073 15.4189229294  
Pt 5.6582981926 4.8979008954 15.4172039305  
Pt 8.4855380152 4.9003817176 15.4203081946  
H 1.9366468673 1.1194087323 16.4902952450  

