&CONTROL
   tprnfor          = .true.
   pseudo_dir       = '/users/kbadger1/espresso/pseudo/pslibrary.1.0.0/pbe/PSEUDOPOTENTIALS/'
/
&SYSTEM
   ecutwfc          = 40
   ecutrho          = 410
   nosym            = .true.
   occupations      = 'smearing'
   degauss          = 0.02
   smearing         = 'marzari-vanderbilt'
   nspin            = 1
   input_dft        = 'beef-vdw'
   ntyp             = 2
   nat              = 37
   ibrav            = 0
/
&ELECTRONS
   conv_thr         = 1e-08
   mixing_mode      = 'local-TF'
/
&IONS
/
&CELL
/
&FCP
/
&RISM
/
ATOMIC_SPECIES
Pt 195.084 Pt.pbe-n-kjpaw_psl.1.0.0.UPF
H 1.008 H.pbe-kjpaw_psl.1.0.0.UPF

K_POINTS automatic
5 5 1  0 0 0

CELL_PARAMETERS angstrom
8.48528137423857 0.00000000000000 0.00000000000000
4.24264068711929 7.34846922834953 0.00000000000000
0.00000000000000 0.00000000000000 23.92820323027551

ATOMIC_POSITIONS angstrom
Pt 0.0000000000 0.0000000000 8.5000000000   0 0 0
Pt 2.8284271247 0.0000000000 8.5000000000   0 0 0
Pt 5.6568542495 0.0000000000 8.5000000000   0 0 0
Pt 1.4142135624 2.4494897428 8.5000000000   0 0 0
Pt 4.2426406871 2.4494897428 8.5000000000   0 0 0
Pt 7.0710678119 2.4494897428 8.5000000000   0 0 0
Pt 2.8284271247 4.8989794856 8.5000000000   0 0 0
Pt 5.6568542495 4.8989794856 8.5000000000   0 0 0
Pt 8.4852813742 4.8989794856 8.5000000000   0 0 0
Pt 1.4142135624 0.8164965809 10.8094010768   0 0 0
Pt 4.2426406871 0.8164965809 10.8094010768   0 0 0
Pt 7.0710678119 0.8164965809 10.8094010768   0 0 0
Pt 2.8284271247 3.2659863237 10.8094010768   0 0 0
Pt 5.6568542495 3.2659863237 10.8094010768   0 0 0
Pt 8.4852813742 3.2659863237 10.8094010768   0 0 0
Pt 4.2426406871 5.7154760665 10.8094010768   0 0 0
Pt 7.0710678119 5.7154760665 10.8094010768   0 0 0
Pt 9.8994949366 5.7154760665 10.8094010768   0 0 0
Pt 0.0137612598 1.6298963428 13.0980683641  
Pt 2.8361561552 1.6246807603 13.1033593160  
Pt 5.6672685252 1.6278958898 13.0873964090  
Pt 1.4203461100 4.0512226346 13.1237122247  
Pt 4.2507477597 4.0783429276 13.0886042588  
Pt 7.0797286704 4.0780915861 13.0898091838  
Pt 2.8335939390 6.5216855729 13.0848162788  
Pt 5.6676942076 6.5299057154 13.0961885732  
Pt 8.4889060129 6.5246873825 13.0975895696  
Pt -0.0003383792 -0.0214445899 15.4090346215  
Pt 2.8656288757 -0.0216989158 15.4536518066  
Pt 5.6781948519 -0.0076057393 15.4174903825  
Pt 1.4494396542 2.4396435344 15.5119093674  
Pt 4.2868154674 2.4488234088 15.4118647105  
Pt 7.0945327957 2.4415176729 15.4142605059  
Pt 2.8516350909 4.8934697565 15.4165856289  
Pt 5.6800188435 4.8895431514 15.4167825115  
Pt 8.5064629816 4.8916291032 15.4215679687  
H 1.8075572474 1.5221696475 16.7721460425  

