Pt H 
 1.0000000000000000
     8.4683100000000007    0.0000000000000000    0.0000000000000000
     4.2341550000000012    7.3337715871217997    0.0000000000000000
     0.0000000000000000    0.0000000000000000   24.9656619900000010
 Pt  H  
  36   1
Selective dynamics
Cartesian
  0.0000000000000000  0.0000000000000000  8.5000000000000000   F   F   F
  2.8284271247461903  0.0000000000000000  8.5000000000000000   F   F   F
  5.6568542494923806  0.0000000000000000  8.5000000000000000   F   F   F
  1.4142135623730951  2.4494897427831779  8.5000000000000000   F   F   F
  4.2426406871192857  2.4494897427831779  8.5000000000000000   F   F   F
  7.0710678118654755  2.4494897427831779  8.5000000000000000   F   F   F
  2.8284271247461903  4.8989794855663558  8.5000000000000000   F   F   F
  5.6568542494923806  4.8989794855663558  8.5000000000000000   F   F   F
  8.4852813742385713  4.8989794855663558  8.5000000000000000   F   F   F
  1.4142135623730951  0.8164965809277259 10.8094010767585029   F   F   F
  4.2426406871192848  0.8164965809277259 10.8094010767585029   F   F   F
  7.0710678118654755  0.8164965809277259 10.8094010767585029   F   F   F
  2.8284271247461903  3.2659863237109037 10.8094010767585029   F   F   F
  5.6568542494923806  3.2659863237109037 10.8094010767585029   F   F   F
  8.4852813742385713  3.2659863237109037 10.8094010767585029   F   F   F
  4.2426406871192857  5.7154760664940820 10.8094010767585029   F   F   F
  7.0710678118654755  5.7154760664940820 10.8094010767585029   F   F   F
  9.8994949366116671  5.7154760664940820 10.8094010767585029   F   F   F
  0.0122812860995757  1.6585589930288958 13.1096715116447609   T   T   T
  2.8261649770510906  1.6502908958938922 13.1282979367026069   T   T   T
  5.6539246933557630  1.6530246625282330 13.0837245646218019   T   T   T
  1.4157736460860384  4.0831360583657270 13.1164449188560113   T   T   T
  4.2381411880481501  4.1010613411114978 13.0860488479133092   T   T   T
  7.0662443730804725  4.1013444522235813 13.0915192186348293   T   T   T
  2.8253792811239284  6.5397257577829002 13.0877887992234161   T   T   T
  5.6577018597089106  6.5504172211071463 13.1058648868311245   T   T   T
  8.4640874334023675  6.5426175232906818 13.1131632321818241   T   T   T
 -0.0267186294206474  0.0178703413473429 15.4162894876710386   T   T   T
  2.8519875489865538  0.0178795338968589 15.4998458113689352   T   T   T
  5.6548635898905797  0.0347045604403705 15.4198188062747530   T   T   T
  1.4194480145549586  2.4969945790649768 15.5134491687525848   T   T   T
  4.2715229650011128  2.4986600729279584 15.4153664468695037   T   T   T
  7.0593378085288832  2.4839585375037916 15.4185469005032267   T   T   T
  2.8294345763177340  4.9255866365216718 15.4254282766026058   T   T   T
  5.6519823283558388  4.9204118046245986 15.4150025840475404   T   T   T
  8.4765351667935551  4.9207197978095403 15.4290793326315629   T   T   T
  2.0163535736611027  1.1916421956137959 16.5113904612283093   T   T   T
