&CONTROL
   calculation      = 'ensemble'
   tprnfor          = .true.
   pseudo_dir       = '/users/kbadger1/espresso/pseudo/pslibrary.1.0.0/pbe/PSEUDOPOTENTIALS/'
/
&SYSTEM
   ecutwfc          = 50
   ecutrho          = 410
   nosym            = .true.
   occupations      = 'smearing'
   degauss          = 0.02
   smearing         = 'marzari-vanderbilt'
   nspin            = 1
   input_dft        = 'beef-vdw'
   ntyp             = 5
   nat              = 40
   ibrav            = 0
/
&ELECTRONS
   conv_thr         = 1e-08
   mixing_mode      = 'local-TF'
/
&IONS
/
&CELL
/
&FCP
/
&RISM
/
ATOMIC_SPECIES
Pt 194.9647917 Pt.pbe-n-kjpaw_psl.1.0.0.UPF
C 12.0 C.pbe-n-kjpaw_psl.1.0.0.UPF
H 1.00782503223 H.pbe-kjpaw_psl.1.0.0.UPF
N 14.00307400443 N.pbe-n-kjpaw_psl.1.0.0.UPF
O 15.99491461957 O.pbe-nl-kjpaw_psl.1.0.0.UPF

K_POINTS automatic
5 5 1  0 0 0

CELL_PARAMETERS angstrom
8.48528137423857 0.00000000000000 0.00000000000000
4.24264068711929 7.34846922834953 0.00000000000000
0.00000000000000 0.00000000000000 23.92820323027551

ATOMIC_POSITIONS angstrom
Pt 0.0000000000 0.0000000000 8.5000000000   0 0 0
Pt 2.8284271247 0.0000000000 8.5000000000   0 0 0
Pt 5.6568542495 0.0000000000 8.5000000000   0 0 0
Pt 1.4142135624 2.4494897428 8.5000000000   0 0 0
Pt 4.2426406871 2.4494897428 8.5000000000   0 0 0
Pt 7.0710678119 2.4494897428 8.5000000000   0 0 0
Pt 2.8284271247 4.8989794856 8.5000000000   0 0 0
Pt 5.6568542495 4.8989794856 8.5000000000   0 0 0
Pt 8.4852813742 4.8989794856 8.5000000000   0 0 0
Pt 1.4142135624 0.8164965809 10.8094010768   0 0 0
Pt 4.2426406871 0.8164965809 10.8094010768   0 0 0
Pt 7.0710678119 0.8164965809 10.8094010768   0 0 0
Pt 2.8284271247 3.2659863237 10.8094010768   0 0 0
Pt 5.6568542495 3.2659863237 10.8094010768   0 0 0
Pt 8.4852813742 3.2659863237 10.8094010768   0 0 0
Pt 4.2426406871 5.7154760665 10.8094010768   0 0 0
Pt 7.0710678119 5.7154760665 10.8094010768   0 0 0
Pt 9.8994949366 5.7154760665 10.8094010768   0 0 0
Pt 0.0088312522 1.6173175015 13.1132853304  
Pt 2.8308161548 1.6228729838 13.1275649882  
Pt 5.6511483481 1.6202252903 13.1077204412  
Pt 1.4166473112 4.0582031050 13.1042520998  
Pt 4.2431705699 4.0475396084 13.1234818091  
Pt 7.0726951868 4.0771454728 13.0706465155  
Pt 2.8238942362 6.5408003669 13.1390134164  
Pt 5.6639304857 6.5370169678 13.1366263820  
Pt 8.4756088692 6.5413553906 13.1260637579  
Pt -0.0429896788 -0.0430280257 15.5718582984  
Pt 2.8135554712 -0.0414906510 15.6087451886  
Pt 5.7264642859 -0.0513013258 15.5168555258  
Pt 1.4097416163 2.4934058266 15.5520692527  
Pt 4.2683355617 2.5050909451 15.5459423726  
Pt 7.0833150705 2.4713671233 15.3910895396  
Pt 2.8353827604 4.8908894340 15.4123519889  
Pt 5.6761836542 4.8637931154 15.4099213106  
Pt 8.4880009327 4.8668952138 15.3915277566  
C 1.3241614136 0.8566598456 16.6716187253  
H 1.3499262911 0.8906818676 17.7641742947  
N 4.4237724452 0.8806175711 16.8191016407  
O 4.4542229197 0.9085669519 18.0314342471  

