&CONTROL
   tprnfor          = .true.
   pseudo_dir       = '/users/kbadger1/espresso/pseudo/pslibrary.1.0.0/pbe/PSEUDOPOTENTIALS/'
/
&SYSTEM
   ecutwfc          = 40
   ecutrho          = 410
   nosym            = .true.
   occupations      = 'smearing'
   degauss          = 0.02
   smearing         = 'marzari-vanderbilt'
   nspin            = 1
   input_dft        = 'beef-vdw'
   ntyp             = 3
   nat              = 39
   ibrav            = 0
/
&ELECTRONS
   mixing_mode      = 'local-TF'
/
&IONS
/
&CELL
/
&FCP
/
&RISM
/
ATOMIC_SPECIES
Pt 195.084 Pt.pbe-n-kjpaw_psl.1.0.0.UPF
O 15.999 O.pbe-nl-kjpaw_psl.1.0.0.UPF
H 1.008 H.pbe-kjpaw_psl.1.0.0.UPF

K_POINTS automatic
5 5 1  0 0 0

CELL_PARAMETERS angstrom
8.48528137423857 0.00000000000000 0.00000000000000
4.24264068711929 7.34846922834953 0.00000000000000
0.00000000000000 0.00000000000000 23.92820323027551

ATOMIC_POSITIONS angstrom
Pt 0.0000000000 0.0000000000 8.5000000000   0 0 0
Pt 2.8284271247 0.0000000000 8.5000000000   0 0 0
Pt 5.6568542495 0.0000000000 8.5000000000   0 0 0
Pt 1.4142135624 2.4494897428 8.5000000000   0 0 0
Pt 4.2426406871 2.4494897428 8.5000000000   0 0 0
Pt 7.0710678119 2.4494897428 8.5000000000   0 0 0
Pt 2.8284271247 4.8989794856 8.5000000000   0 0 0
Pt 5.6568542495 4.8989794856 8.5000000000   0 0 0
Pt 8.4852813742 4.8989794856 8.5000000000   0 0 0
Pt 1.4142135624 0.8164965809 10.8094010768   0 0 0
Pt 4.2426406871 0.8164965809 10.8094010768   0 0 0
Pt 7.0710678119 0.8164965809 10.8094010768   0 0 0
Pt 2.8284271247 3.2659863237 10.8094010768   0 0 0
Pt 5.6568542495 3.2659863237 10.8094010768   0 0 0
Pt 8.4852813742 3.2659863237 10.8094010768   0 0 0
Pt 4.2426406871 5.7154760665 10.8094010768   0 0 0
Pt 7.0710678119 5.7154760665 10.8094010768   0 0 0
Pt 9.8994949366 5.7154760665 10.8094010768   0 0 0
Pt -0.0067370145 1.6289622130 13.0782713083  
Pt 2.8379488674 1.6372839004 13.1220868783  
Pt 5.6333268718 1.6284991512 13.1583059729  
Pt 1.4103705714 4.0794113903 13.0840830154  
Pt 4.2386315012 4.0695156744 13.1057577028  
Pt 7.0695635087 4.0769443387 13.0828319737  
Pt 2.8137841539 6.5420398857 13.0945586498  
Pt 5.6543405965 6.5326890004 13.0737434315  
Pt 8.4931693525 6.5365880507 13.1085482163  
Pt 0.0014766666 -0.0150280351 15.4126964211  
Pt 2.8119928160 -0.0314075067 15.4019135342  
Pt 5.6628115309 -0.0352245462 15.5417802344  
Pt 1.3909189308 2.4346533268 15.3974399968  
Pt 4.2545794089 2.4338437041 15.5323051950  
Pt 7.0832499086 2.4394393791 15.4091798723  
Pt 2.8223982220 4.9009844085 15.3886225633  
Pt 5.6610189137 4.9018871144 15.4000055765  
Pt 8.4757429168 4.8821732184 15.4129943831  
O 4.0709512757 2.4676930794 17.5365629825  
H 4.3879095529 3.3363348751 17.8354746252  
H 5.6675048544 -0.0783093370 17.0962530665  

