&CONTROL
   tprnfor          = .true.
   pseudo_dir       = '/users/kbadger1/espresso/pseudo/pslibrary.1.0.0/pbe/PSEUDOPOTENTIALS/'
/
&SYSTEM
   ecutwfc          = 40
   ecutrho          = 410
   nosym            = .true.
   occupations      = 'smearing'
   degauss          = 0.001
   smearing         = 'marzari-vanderbilt'
   nspin            = 1
   input_dft        = 'beef-vdw'
   ntyp             = 3
   nat              = 39
   ibrav            = 0
/
&ELECTRONS
   conv_thr         = 1e-08
   mixing_mode      = 'local-TF'
/
&IONS
/
&CELL
/
&FCP
/
&RISM
/
ATOMIC_SPECIES
Pt 195.084 Pt.pbe-n-kjpaw_psl.1.0.0.UPF
O 15.999 O.pbe-nl-kjpaw_psl.1.0.0.UPF
H 1.008 H.pbe-kjpaw_psl.1.0.0.UPF

K_POINTS automatic
5 5 1  0 0 0

CELL_PARAMETERS angstrom
8.48528137423857 0.00000000000000 0.00000000000000
4.24264068711929 7.34846922834953 0.00000000000000
0.00000000000000 0.00000000000000 23.92820323027551

ATOMIC_POSITIONS angstrom
Pt 0.0000000000 0.0000000000 8.5000000000   0 0 0
Pt 2.8284271247 0.0000000000 8.5000000000   0 0 0
Pt 5.6568542495 0.0000000000 8.5000000000   0 0 0
Pt 1.4142135624 2.4494897428 8.5000000000   0 0 0
Pt 4.2426406871 2.4494897428 8.5000000000   0 0 0
Pt 7.0710678119 2.4494897428 8.5000000000   0 0 0
Pt 2.8284271247 4.8989794856 8.5000000000   0 0 0
Pt 5.6568542495 4.8989794856 8.5000000000   0 0 0
Pt 8.4852813742 4.8989794856 8.5000000000   0 0 0
Pt 1.4142135624 0.8164965809 10.8094010768   0 0 0
Pt 4.2426406871 0.8164965809 10.8094010768   0 0 0
Pt 7.0710678119 0.8164965809 10.8094010768   0 0 0
Pt 2.8284271247 3.2659863237 10.8094010768   0 0 0
Pt 5.6568542495 3.2659863237 10.8094010768   0 0 0
Pt 8.4852813742 3.2659863237 10.8094010768   0 0 0
Pt 4.2426406871 5.7154760665 10.8094010768   0 0 0
Pt 7.0710678119 5.7154760665 10.8094010768   0 0 0
Pt 9.8994949366 5.7154760665 10.8094010768   0 0 0
Pt -0.0639244171 1.6847850026 13.0879027534  
Pt 2.7651733111 1.7000764019 13.1245958405  
Pt 5.5876614957 1.6855248772 13.1206024115  
Pt 1.3418930695 4.1450587588 13.1098858591  
Pt 4.1593929732 4.1075511626 13.1675508516  
Pt 7.0025149133 4.1452041744 13.0962151621  
Pt 2.7507887733 6.5894722022 13.1172445753  
Pt 5.5763914451 6.5802366803 13.0820851035  
Pt 8.4232484578 6.5975970926 13.1148983040  
Pt -0.1442156385 0.1224686007 15.4389711292  
Pt 2.6618231678 0.0950596097 15.3985511638  
Pt 5.5207119958 0.1167591224 15.5366262192  
Pt 1.2567805516 2.5744122741 15.4277000603  
Pt 4.0994058510 2.6138047662 15.5388429169  
Pt 6.9559220713 2.5789196243 15.4079595730  
Pt 2.6728161024 5.0501962038 15.4655630852  
Pt 5.5238116038 5.0369417779 15.4391587864  
Pt 8.3440889333 5.0232845373 15.4472228478  
O 4.2457230885 2.0865740207 17.5625889081  
H 4.9521124217 2.6453577930 17.9323046241  
H 5.0580138897 0.7742978566 16.9483063737  

