&CONTROL
   calculation      = 'ensemble'
   tprnfor          = .true.
   pseudo_dir       = '/users/kbadger1/espresso/pseudo/pslibrary.1.0.0/pbe/PSEUDOPOTENTIALS/'
/
&SYSTEM
   ecutwfc          = 50
   ecutrho          = 410
   nosym            = .true.
   occupations      = 'smearing'
   degauss          = 0.02
   smearing         = 'marzari-vanderbilt'
   nspin            = 1
   input_dft        = 'beef-vdw'
   ntyp             = 5
   nat              = 40
   ibrav            = 0
/
&ELECTRONS
   conv_thr         = 1e-08
   mixing_mode      = 'local-TF'
/
&IONS
/
&CELL
/
&FCP
/
&RISM
/
ATOMIC_SPECIES
Pt 194.9647917 Pt.pbe-n-kjpaw_psl.1.0.0.UPF
C 12.0 C.pbe-n-kjpaw_psl.1.0.0.UPF
H 1.00782503223 H.pbe-kjpaw_psl.1.0.0.UPF
N 14.00307400443 N.pbe-n-kjpaw_psl.1.0.0.UPF
O 15.99491461957 O.pbe-nl-kjpaw_psl.1.0.0.UPF

K_POINTS automatic
5 5 1  0 0 0

CELL_PARAMETERS angstrom
8.48528137423857 0.00000000000000 0.00000000000000
4.24264068711929 7.34846922834953 0.00000000000000
0.00000000000000 0.00000000000000 23.92820323027551

ATOMIC_POSITIONS angstrom
Pt 0.0000000000 0.0000000000 8.5000000000   0 0 0
Pt 2.8284271247 0.0000000000 8.5000000000   0 0 0
Pt 5.6568542495 0.0000000000 8.5000000000   0 0 0
Pt 1.4142135624 2.4494897428 8.5000000000   0 0 0
Pt 4.2426406871 2.4494897428 8.5000000000   0 0 0
Pt 7.0710678119 2.4494897428 8.5000000000   0 0 0
Pt 2.8284271247 4.8989794856 8.5000000000   0 0 0
Pt 5.6568542495 4.8989794856 8.5000000000   0 0 0
Pt 8.4852813742 4.8989794856 8.5000000000   0 0 0
Pt 1.4142135624 0.8164965809 10.8094010768   0 0 0
Pt 4.2426406871 0.8164965809 10.8094010768   0 0 0
Pt 7.0710678119 0.8164965809 10.8094010768   0 0 0
Pt 2.8284271247 3.2659863237 10.8094010768   0 0 0
Pt 5.6568542495 3.2659863237 10.8094010768   0 0 0
Pt 8.4852813742 3.2659863237 10.8094010768   0 0 0
Pt 4.2426406871 5.7154760665 10.8094010768   0 0 0
Pt 7.0710678119 5.7154760665 10.8094010768   0 0 0
Pt 9.8994949366 5.7154760665 10.8094010768   0 0 0
Pt 0.0119774396 1.6179291052 13.1025206089  
Pt 2.8252222554 1.6179650135 13.1417453173  
Pt 5.6405644069 1.6224428473 13.0981692100  
Pt 1.4138106148 4.0522005986 13.1140881542  
Pt 4.2428715223 4.0493835061 13.1199448728  
Pt 7.0723855814 4.0791476017 13.0591174727  
Pt 2.8159179470 6.5407980839 13.1373682254  
Pt 5.6686520528 6.5461787230 13.1365018092  
Pt 8.4592312466 6.5445123551 13.1302961237  
Pt -0.0835508299 -0.0764740707 15.5347869124  
Pt 2.8468704062 -0.0870454690 15.7242182327  
Pt 5.7485664775 -0.0791748877 15.4782832528  
Pt 1.4153678995 2.5599400230 15.5677525646  
Pt 4.2711751202 2.5486622444 15.5394181872  
Pt 7.0761509592 2.4651977583 15.3556803215  
Pt 2.8462927784 4.8912045428 15.4040323007  
Pt 5.6819831015 4.8709776950 15.3863592695  
Pt 8.4814237690 4.8727825243 15.3875679540  
C 1.2896080403 0.8692431986 16.4241523578  
H 3.8856213608 1.4877027592 18.3670121494  
N 4.4249460124 0.8688403574 16.6437535504  
O 4.5798993723 0.8835255911 18.0371986524  

