&CONTROL
   tprnfor          = .true.
   pseudo_dir       = '/users/kbadger1/espresso/pseudo/pslibrary.1.0.0/pbe/PSEUDOPOTENTIALS/'
/
&SYSTEM
   ecutwfc          = 40
   ecutrho          = 410
   nosym            = .true.
   occupations      = 'smearing'
   degauss          = 0.02
   smearing         = 'marzari-vanderbilt'
   nspin            = 1
   input_dft        = 'beef-vdw'
   ntyp             = 2
   nat              = 37
   ibrav            = 0
/
&ELECTRONS
   mixing_mode      = 'local-TF'
/
&IONS
/
&CELL
/
&FCP
/
&RISM
/
ATOMIC_SPECIES
Pt 195.084 Pt.pbe-n-kjpaw_psl.1.0.0.UPF
H 1.008 H.pbe-kjpaw_psl.1.0.0.UPF

K_POINTS automatic
5 5 1  0 0 0

CELL_PARAMETERS angstrom
8.48528137423857 0.00000000000000 0.00000000000000
4.24264068711929 7.34846922834953 0.00000000000000
0.00000000000000 0.00000000000000 23.92820323027551

ATOMIC_POSITIONS angstrom
Pt 0.0000000000 0.0000000000 8.5000000000   0 0 0
Pt 2.8284271247 0.0000000000 8.5000000000   0 0 0
Pt 5.6568542495 0.0000000000 8.5000000000   0 0 0
Pt 1.4142135624 2.4494897428 8.5000000000   0 0 0
Pt 4.2426406871 2.4494897428 8.5000000000   0 0 0
Pt 7.0710678119 2.4494897428 8.5000000000   0 0 0
Pt 2.8284271247 4.8989794856 8.5000000000   0 0 0
Pt 5.6568542495 4.8989794856 8.5000000000   0 0 0
Pt 8.4852813742 4.8989794856 8.5000000000   0 0 0
Pt 1.4142135624 0.8164965809 10.8094010768   0 0 0
Pt 4.2426406871 0.8164965809 10.8094010768   0 0 0
Pt 7.0710678119 0.8164965809 10.8094010768   0 0 0
Pt 2.8284271247 3.2659863237 10.8094010768   0 0 0
Pt 5.6568542495 3.2659863237 10.8094010768   0 0 0
Pt 8.4852813742 3.2659863237 10.8094010768   0 0 0
Pt 4.2426406871 5.7154760665 10.8094010768   0 0 0
Pt 7.0710678119 5.7154760665 10.8094010768   0 0 0
Pt 9.8994949366 5.7154760665 10.8094010768   0 0 0
Pt 0.0030190938 1.6201052673 13.1009859258  
Pt 2.8256521011 1.6202521232 13.1007341740  
Pt 5.6569685742 1.6208959545 13.0870513028  
Pt 1.4145516273 4.0456516354 13.1225866793  
Pt 4.2422323082 4.0713630146 13.0888022229  
Pt 7.0718268332 4.0713689758 13.0887375775  
Pt 2.8300934842 6.5173207669 13.0926391957  
Pt 5.6568915869 6.5236249048 13.0965408081  
Pt 8.4845617234 6.5169546109 13.0919400781  
Pt -0.0201818700 -0.0376325281 15.4350599033  
Pt 2.8501855166 -0.0381299167 15.4323759307  
Pt 5.6573292527 -0.0218150411 15.4192645089  
Pt 1.4142093235 2.4356847026 15.5030708135  
Pt 4.2533248549 2.4299181900 15.4126969948  
Pt 7.0603066793 2.4301993032 15.4123802274  
Pt 2.8314255146 4.8793761042 15.4194612528  
Pt 5.6571574488 4.8725366461 15.4141082387  
Pt 8.4832755604 4.8792380189 15.4193314966  
H 1.3990529009 1.3623764762 16.7033412734  

