&CONTROL
   tprnfor          = .true.
   pseudo_dir       = '/users/kbadger1/espresso/pseudo/pslibrary.1.0.0/pbe/PSEUDOPOTENTIALS/'
/
&SYSTEM
   ecutwfc          = 40
   ecutrho          = 410
   nosym            = .true.
   occupations      = 'smearing'
   degauss          = 0.02
   smearing         = 'marzari-vanderbilt'
   nspin            = 1
   input_dft        = 'beef-vdw'
   ntyp             = 2
   nat              = 37
   ibrav            = 0
/
&ELECTRONS
   mixing_mode      = 'local-TF'
/
&IONS
/
&CELL
/
&FCP
/
&RISM
/
ATOMIC_SPECIES
Pt 195.084 Pt.pbe-n-kjpaw_psl.1.0.0.UPF
H 1.008 H.pbe-kjpaw_psl.1.0.0.UPF

K_POINTS automatic
5 5 1  0 0 0

CELL_PARAMETERS angstrom
8.46831000000000 0.00000000000000 0.00000000000000
4.23415500000000 7.33377158712180 0.00000000000000
0.00000000000000 0.00000000000000 24.96566199000000

ATOMIC_POSITIONS angstrom
Pt 0.0000000000 0.0000000000 8.5000000000   0 0 0
Pt 2.8284271247 0.0000000000 8.5000000000   0 0 0
Pt 5.6568542495 0.0000000000 8.5000000000   0 0 0
Pt 1.4142135624 2.4494897428 8.5000000000   0 0 0
Pt 4.2426406871 2.4494897428 8.5000000000   0 0 0
Pt 7.0710678119 2.4494897428 8.5000000000   0 0 0
Pt 2.8284271247 4.8989794856 8.5000000000   0 0 0
Pt 5.6568542495 4.8989794856 8.5000000000   0 0 0
Pt 8.4852813742 4.8989794856 8.5000000000   0 0 0
Pt 1.4142135624 0.8164965809 10.8094010768   0 0 0
Pt 4.2426406871 0.8164965809 10.8094010768   0 0 0
Pt 7.0710678119 0.8164965809 10.8094010768   0 0 0
Pt 2.8284271247 3.2659863237 10.8094010768   0 0 0
Pt 5.6568542495 3.2659863237 10.8094010768   0 0 0
Pt 8.4852813742 3.2659863237 10.8094010768   0 0 0
Pt 4.2426406871 5.7154760665 10.8094010768   0 0 0
Pt 7.0710678119 5.7154760665 10.8094010768   0 0 0
Pt 9.8994949366 5.7154760665 10.8094010768   0 0 0
Pt 0.0156951713 1.6262837816 13.1087525715  
Pt 2.8313413733 1.6251496479 13.1060607042  
Pt 5.6580798482 1.6256038855 13.0909708646  
Pt 1.4242961806 4.0481023717 13.1298391497  
Pt 4.2457897792 4.0716424248 13.0923879132  
Pt 7.0705818152 4.0718685820 13.0915169955  
Pt 2.8381667160 6.5136998584 13.1023036349  
Pt 5.6585958810 6.5183124208 13.1043638618  
Pt 8.4808808835 6.5126330421 13.0987269888  
Pt -0.0060012295 -0.0258051601 15.4469529425  
Pt 2.8574415494 -0.0258759524 15.4446347001  
Pt 5.6592409806 -0.0108126043 15.4304947369  
Pt 1.4256315852 2.4429276697 15.5170813396  
Pt 4.2583608682 2.4363531671 15.4216884156  
Pt 7.0604166929 2.4366482580 15.4220161651  
Pt 2.8399897424 4.8803251038 15.4309466675  
Pt 5.6596447351 4.8722178079 15.4235685379  
Pt 8.4789548651 4.8805149069 15.4299415845  
H 1.4224439180 1.3674102747 16.7165776351  

