&CONTROL
   tprnfor          = .true.
   pseudo_dir       = '/users/kbadger1/espresso/pseudo/pslibrary.1.0.0/pbe/PSEUDOPOTENTIALS/'
/
&SYSTEM
   ecutwfc          = 40
   ecutrho          = 410
   nosym            = .true.
   occupations      = 'smearing'
   degauss          = 0.001
   smearing         = 'marzari-vanderbilt'
   nspin            = 1
   input_dft        = 'beef-vdw'
   ntyp             = 3
   nat              = 38
   ibrav            = 0
/
&ELECTRONS
   conv_thr         = 1e-08
   mixing_mode      = 'local-TF'
/
&IONS
/
&CELL
/
&FCP
/
&RISM
/
ATOMIC_SPECIES
Pt 195.084 Pt.pbe-n-kjpaw_psl.1.0.0.UPF
C 12.011 C.pbe-n-kjpaw_psl.1.0.0.UPF
H 1.008 H.pbe-kjpaw_psl.1.0.0.UPF

K_POINTS automatic
5 5 1  0 0 0

CELL_PARAMETERS angstrom
8.48528137423857 0.00000000000000 0.00000000000000
4.24264068711929 7.34846922834953 0.00000000000000
0.00000000000000 0.00000000000000 23.92820323027551

ATOMIC_POSITIONS angstrom
Pt 0.0000000000 0.0000000000 8.5000000000   0 0 0
Pt 2.8284271247 0.0000000000 8.5000000000   0 0 0
Pt 5.6568542495 0.0000000000 8.5000000000   0 0 0
Pt 1.4142135624 2.4494897428 8.5000000000   0 0 0
Pt 4.2426406871 2.4494897428 8.5000000000   0 0 0
Pt 7.0710678119 2.4494897428 8.5000000000   0 0 0
Pt 2.8284271247 4.8989794856 8.5000000000   0 0 0
Pt 5.6568542495 4.8989794856 8.5000000000   0 0 0
Pt 8.4852813742 4.8989794856 8.5000000000   0 0 0
Pt 1.4142135624 0.8164965809 10.8094010768   0 0 0
Pt 4.2426406871 0.8164965809 10.8094010768   0 0 0
Pt 7.0710678119 0.8164965809 10.8094010768   0 0 0
Pt 2.8284271247 3.2659863237 10.8094010768   0 0 0
Pt 5.6568542495 3.2659863237 10.8094010768   0 0 0
Pt 8.4852813742 3.2659863237 10.8094010768   0 0 0
Pt 4.2426406871 5.7154760665 10.8094010768   0 0 0
Pt 7.0710678119 5.7154760665 10.8094010768   0 0 0
Pt 9.8994949366 5.7154760665 10.8094010768   0 0 0
Pt 0.0057173400 1.6597946456 13.1193596001  
Pt 2.8227036906 1.6598001818 13.1193705416  
Pt 5.6568267676 1.6635884750 13.0871287106  
Pt 1.4142197756 4.1317745190 13.0946214615  
Pt 4.2382976881 4.1174880070 13.0873799052  
Pt 7.0753776652 4.1174915074 13.0873577228  
Pt 2.8434221162 6.5805778193 13.1241640203  
Pt 5.6568354283 6.5742816293 13.1303852585  
Pt 8.4702857427 6.5805871542 13.1241795939  
Pt -0.0485975656 0.0611864497 15.5743919157  
Pt 2.8769943136 0.0611947161 15.5743865955  
Pt 5.6568400150 0.0831202138 15.4418089907  
Pt 1.4142143785 2.6918806672 15.4370271753  
Pt 4.2726253462 2.5413901050 15.4065453865  
Pt 7.0410500312 2.5413845528 15.4065664179  
Pt 2.8487363283 5.0047692333 15.4440528596  
Pt 5.6568305864 4.9423475790 15.4076550062  
Pt 8.4649394363 5.0047852711 15.4440741808  
C 1.4141981906 1.0021608943 16.5128300001  
H 1.4142230271 1.7425776553 17.3506158288  

