&CONTROL
   tprnfor          = .true.
   pseudo_dir       = '/users/kbadger1/espresso/pseudo/pslibrary.1.0.0/pbe/PSEUDOPOTENTIALS/'
/
&SYSTEM
   ecutwfc          = 40
   ecutrho          = 410
   nosym            = .true.
   occupations      = 'smearing'
   degauss          = 0.02
   smearing         = 'marzari-vanderbilt'
   nspin            = 1
   input_dft        = 'beef-vdw'
   ntyp             = 2
   nat              = 37
   ibrav            = 0
/
&ELECTRONS
   mixing_mode      = 'local-TF'
/
&IONS
/
&CELL
/
&FCP
/
&RISM
/
ATOMIC_SPECIES
Pt 195.084 Pt.pbe-n-kjpaw_psl.1.0.0.UPF
H 1.008 H.pbe-kjpaw_psl.1.0.0.UPF

K_POINTS automatic
5 5 1  0 0 0

CELL_PARAMETERS angstrom
8.48528137423857 0.00000000000000 0.00000000000000
4.24264068711929 7.34846922834953 0.00000000000000
0.00000000000000 0.00000000000000 23.92820323027551

ATOMIC_POSITIONS angstrom
Pt 0.0000000000 0.0000000000 8.5000000000   0 0 0
Pt 2.8284271247 0.0000000000 8.5000000000   0 0 0
Pt 5.6568542495 0.0000000000 8.5000000000   0 0 0
Pt 1.4142135624 2.4494897428 8.5000000000   0 0 0
Pt 4.2426406871 2.4494897428 8.5000000000   0 0 0
Pt 7.0710678119 2.4494897428 8.5000000000   0 0 0
Pt 2.8284271247 4.8989794856 8.5000000000   0 0 0
Pt 5.6568542495 4.8989794856 8.5000000000   0 0 0
Pt 8.4852813742 4.8989794856 8.5000000000   0 0 0
Pt 1.4142135624 0.8164965809 10.8094010768   0 0 0
Pt 4.2426406871 0.8164965809 10.8094010768   0 0 0
Pt 7.0710678119 0.8164965809 10.8094010768   0 0 0
Pt 2.8284271247 3.2659863237 10.8094010768   0 0 0
Pt 5.6568542495 3.2659863237 10.8094010768   0 0 0
Pt 8.4852813742 3.2659863237 10.8094010768   0 0 0
Pt 4.2426406871 5.7154760665 10.8094010768   0 0 0
Pt 7.0710678119 5.7154760665 10.8094010768   0 0 0
Pt 9.8994949366 5.7154760665 10.8094010768   0 0 0
Pt 0.0089263254 1.6374732327 13.0976745178  
Pt 2.8286879937 1.6331701433 13.1102346714  
Pt 5.6598328579 1.6349942144 13.0896026661  
Pt 1.4158975933 4.0757815889 13.1007999050  
Pt 4.2458688603 4.0840741008 13.0896228886  
Pt 7.0744106269 4.0843804145 13.0896689093  
Pt 2.8294308553 6.5325664980 13.0807575591  
Pt 5.6651952178 6.5374811535 13.0977196097  
Pt 8.4803014742 6.5367788219 13.1007883228  
Pt -0.0085824316 -0.0049335431 15.4060013100  
Pt 2.8521804036 -0.0127254012 15.4865373799  
Pt 5.6739914173 0.0024240055 15.4141084759  
Pt 1.4151058805 2.4764240662 15.4864595183  
Pt 4.2877481668 2.4755533762 15.4291460932  
Pt 7.0828140551 2.4543576902 15.4175331164  
Pt 2.8391140268 4.9126376812 15.4140948567  
Pt 5.6669550142 4.9067156787 15.4176111660  
Pt 8.4957918025 4.9050513848 15.4190313782  
H 2.4753274679 1.4291443265 16.4441615425  

