&CONTROL
   tprnfor          = .true.
   pseudo_dir       = '/users/kbadger1/espresso/pseudo/pslibrary.1.0.0/pbe/PSEUDOPOTENTIALS/'
/
&SYSTEM
   ecutwfc          = 40
   ecutrho          = 410
   nosym            = .true.
   occupations      = 'smearing'
   degauss          = 0.02
   smearing         = 'marzari-vanderbilt'
   nspin            = 1
   input_dft        = 'beef-vdw'
   ntyp             = 3
   nat              = 38
   ibrav            = 0
/
&ELECTRONS
   mixing_mode      = 'local-TF'
/
&IONS
/
&CELL
/
&FCP
/
&RISM
/
ATOMIC_SPECIES
Pt 195.084 Pt.pbe-n-kjpaw_psl.1.0.0.UPF
H 1.008 H.pbe-kjpaw_psl.1.0.0.UPF
C 12.011 C.pbe-n-kjpaw_psl.1.0.0.UPF

K_POINTS automatic
5 5 1  0 0 0

CELL_PARAMETERS angstrom
8.46831000000000 0.00000000000000 0.00000000000000
4.23415500000000 7.33377158712180 0.00000000000000
0.00000000000000 0.00000000000000 24.96566199000000

ATOMIC_POSITIONS angstrom
Pt 0.0000000000 0.0000000000 8.5000000000   0 0 0
Pt 2.8284271247 0.0000000000 8.5000000000   0 0 0
Pt 5.6568542495 0.0000000000 8.5000000000   0 0 0
Pt 1.4142135624 2.4494897428 8.5000000000   0 0 0
Pt 4.2426406871 2.4494897428 8.5000000000   0 0 0
Pt 7.0710678119 2.4494897428 8.5000000000   0 0 0
Pt 2.8284271247 4.8989794856 8.5000000000   0 0 0
Pt 5.6568542495 4.8989794856 8.5000000000   0 0 0
Pt 8.4852813742 4.8989794856 8.5000000000   0 0 0
Pt 1.4142135624 0.8164965809 10.8094010768   0 0 0
Pt 4.2426406871 0.8164965809 10.8094010768   0 0 0
Pt 7.0710678119 0.8164965809 10.8094010768   0 0 0
Pt 2.8284271247 3.2659863237 10.8094010768   0 0 0
Pt 5.6568542495 3.2659863237 10.8094010768   0 0 0
Pt 8.4852813742 3.2659863237 10.8094010768   0 0 0
Pt 4.2426406871 5.7154760665 10.8094010768   0 0 0
Pt 7.0710678119 5.7154760665 10.8094010768   0 0 0
Pt 9.8994949366 5.7154760665 10.8094010768   0 0 0
Pt 0.0221196469 1.6464749701 13.1341599223  
Pt 2.8221668653 1.6456318920 13.1311941136  
Pt 5.6565915214 1.6499260217 13.0851441791  
Pt 1.4227746958 4.0621450023 13.1520925971  
Pt 4.2404921135 4.0945802424 13.0845277419  
Pt 7.0728574239 4.0947454593 13.0839898591  
Pt 2.8449918945 6.5466454235 13.1228183387  
Pt 5.6568369868 6.5466990522 13.1158763247  
Pt 8.4703588062 6.5456526319 13.1195831749  
Pt -0.1073961730 -0.0260574986 15.5375493410  
Pt 2.9488232111 -0.0251375332 15.5346311120  
Pt 5.6549652949 0.0463485298 15.4379030976  
Pt 1.4215830675 2.5985420009 15.6680410619  
Pt 4.2718991157 2.5034269813 15.4085901233  
Pt 7.0396018316 2.5036599150 15.4093159127  
Pt 2.8336429891 4.9335858376 15.4366281816  
Pt 5.6559059063 4.8964232547 15.4025412047  
Pt 8.4775063215 4.9342030008 15.4359299186  
H 1.4225164975 2.3055418787 17.2305570745  
C 1.4209243035 0.7282561932 16.3423688970  

