&CONTROL
   tprnfor          = .true.
   pseudo_dir       = '/users/kbadger1/espresso/pseudo/pslibrary.1.0.0/pbe/PSEUDOPOTENTIALS/'
/
&SYSTEM
   ecutwfc          = 40
   ecutrho          = 410
   nosym            = .true.
   occupations      = 'smearing'
   degauss          = 0.02
   smearing         = 'marzari-vanderbilt'
   nspin            = 1
   input_dft        = 'beef-vdw'
   ntyp             = 3
   nat              = 38
   ibrav            = 0
/
&ELECTRONS
   mixing_mode      = 'local-TF'
/
&IONS
/
&CELL
/
&FCP
/
&RISM
/
ATOMIC_SPECIES
Pt 195.084 Pt.pbe-n-kjpaw_psl.1.0.0.UPF
C 12.011 C.pbe-n-kjpaw_psl.1.0.0.UPF
H 1.008 H.pbe-kjpaw_psl.1.0.0.UPF

K_POINTS automatic
5 5 1  0 0 0

CELL_PARAMETERS angstrom
8.48528137423857 0.00000000000000 0.00000000000000
4.24264068711929 7.34846922834953 0.00000000000000
0.00000000000000 0.00000000000000 23.92820323027551

ATOMIC_POSITIONS angstrom
Pt 0.0000000000 0.0000000000 8.5000000000   0 0 0
Pt 2.8284271247 0.0000000000 8.5000000000   0 0 0
Pt 5.6568542495 0.0000000000 8.5000000000   0 0 0
Pt 1.4142135624 2.4494897428 8.5000000000   0 0 0
Pt 4.2426406871 2.4494897428 8.5000000000   0 0 0
Pt 7.0710678119 2.4494897428 8.5000000000   0 0 0
Pt 2.8284271247 4.8989794856 8.5000000000   0 0 0
Pt 5.6568542495 4.8989794856 8.5000000000   0 0 0
Pt 8.4852813742 4.8989794856 8.5000000000   0 0 0
Pt 1.4142135624 0.8164965809 10.8094010768   0 0 0
Pt 4.2426406871 0.8164965809 10.8094010768   0 0 0
Pt 7.0710678119 0.8164965809 10.8094010768   0 0 0
Pt 2.8284271247 3.2659863237 10.8094010768   0 0 0
Pt 5.6568542495 3.2659863237 10.8094010768   0 0 0
Pt 8.4852813742 3.2659863237 10.8094010768   0 0 0
Pt 4.2426406871 5.7154760665 10.8094010768   0 0 0
Pt 7.0710678119 5.7154760665 10.8094010768   0 0 0
Pt 9.8994949366 5.7154760665 10.8094010768   0 0 0
Pt 0.0108207824 1.6391752879 13.1269247550  
Pt 2.8153849136 1.6392376032 13.1266122638  
Pt 5.6557663083 1.6442839933 13.0808702977  
Pt 1.4131453565 4.0582312903 13.1443754876  
Pt 4.2374071145 4.0928104572 13.0806543689  
Pt 7.0740427070 4.0927984096 13.0808400483  
Pt 2.8378076225 6.5496446181 13.1104922152  
Pt 5.6556846870 6.5511157638 13.1103516572  
Pt 8.4738630594 6.5496872090 13.1103717101  
Pt -0.1224535796 -0.0411029991 15.5257747245  
Pt 2.9465921585 -0.0409800742 15.5249552818  
Pt 5.6547339240 0.0322818811 15.4226036652  
Pt 1.4120300621 2.5975274740 15.6604984938  
Pt 4.2674558214 2.4944284655 15.3991726411  
Pt 7.0417440679 2.4943956720 15.3994933336  
Pt 2.8270890864 4.9320405354 15.4212079349  
Pt 5.6545361534 4.8928921243 15.3939721697  
Pt 8.4821533617 4.9320412147 15.4213073843  
C 1.4122829293 0.7227260486 16.3061493878  
H 1.4115494337 2.2900772891 17.2202858276  

