&CONTROL
   tprnfor          = .true.
   pseudo_dir       = '/users/kbadger1/espresso/pseudo/pslibrary.1.0.0/pbe/PSEUDOPOTENTIALS/'
/
&SYSTEM
   ecutwfc          = 40
   ecutrho          = 410
   nosym            = .true.
   occupations      = 'smearing'
   degauss          = 0.02
   smearing         = 'marzari-vanderbilt'
   nspin            = 1
   input_dft        = 'beef-vdw'
   ntyp             = 3
   nat              = 39
   ibrav            = 0
/
&ELECTRONS
   conv_thr         = 1e-08
   mixing_mode      = 'local-TF'
/
&IONS
/
&CELL
/
&FCP
/
&RISM
/
ATOMIC_SPECIES
Pt 195.084 Pt.pbe-n-kjpaw_psl.1.0.0.UPF
O 15.999 O.pbe-nl-kjpaw_psl.1.0.0.UPF
H 1.008 H.pbe-kjpaw_psl.1.0.0.UPF

K_POINTS automatic
5 5 1  0 0 0

CELL_PARAMETERS angstrom
8.48528137423857 0.00000000000000 0.00000000000000
4.24264068711929 7.34846922834953 0.00000000000000
0.00000000000000 0.00000000000000 23.92820323027551

ATOMIC_POSITIONS angstrom
Pt 0.0000000000 0.0000000000 8.5000000000   0 0 0
Pt 2.8284271247 0.0000000000 8.5000000000   0 0 0
Pt 5.6568542495 0.0000000000 8.5000000000   0 0 0
Pt 1.4142135624 2.4494897428 8.5000000000   0 0 0
Pt 4.2426406871 2.4494897428 8.5000000000   0 0 0
Pt 7.0710678119 2.4494897428 8.5000000000   0 0 0
Pt 2.8284271247 4.8989794856 8.5000000000   0 0 0
Pt 5.6568542495 4.8989794856 8.5000000000   0 0 0
Pt 8.4852813742 4.8989794856 8.5000000000   0 0 0
Pt 1.4142135624 0.8164965809 10.8094010768   0 0 0
Pt 4.2426406871 0.8164965809 10.8094010768   0 0 0
Pt 7.0710678119 0.8164965809 10.8094010768   0 0 0
Pt 2.8284271247 3.2659863237 10.8094010768   0 0 0
Pt 5.6568542495 3.2659863237 10.8094010768   0 0 0
Pt 8.4852813742 3.2659863237 10.8094010768   0 0 0
Pt 4.2426406871 5.7154760665 10.8094010768   0 0 0
Pt 7.0710678119 5.7154760665 10.8094010768   0 0 0
Pt 9.8994949366 5.7154760665 10.8094010768   0 0 0
Pt -0.0035160121 1.6347305017 13.0829802872  
Pt 2.8264628288 1.6395973384 13.0950642979  
Pt 5.6511651584 1.6369027693 13.0913663779  
Pt 1.4074622560 4.0878830598 13.0917499007  
Pt 4.2366173050 4.0779624081 13.1020455397  
Pt 7.0657206256 4.0880028362 13.0903141335  
Pt 2.8274152537 6.5332467610 13.0816697267  
Pt 5.6490125573 6.5345895098 13.0838466999  
Pt 8.4790868307 6.5345392701 13.0876147792  
Pt -0.0134659451 0.0096257067 15.4171755589  
Pt 2.8094494389 -0.0025784315 15.4048611168  
Pt 5.6500611398 -0.0055781734 15.4008547972  
Pt 1.3909499846 2.4599647614 15.4113627958  
Pt 4.2243249394 2.4660926825 15.4292711000  
Pt 7.0702200110 2.4613746641 15.4052135238  
Pt 2.8097686469 4.9182001919 15.4172769287  
Pt 5.6498594945 4.9171608394 15.4173216772  
Pt 8.4713691482 4.9084835950 15.4237615636  
O 4.4167107128 2.1334358820 17.9545369131  
H 5.2205166560 2.6436541717 18.1408350170  
H 4.7243524091 1.2143846133 17.8747408488  

