&CONTROL
   tprnfor          = .true.
   pseudo_dir       = '/users/kbadger1/espresso/pseudo/pslibrary.1.0.0/pbe/PSEUDOPOTENTIALS/'
/
&SYSTEM
   ecutwfc          = 40
   ecutrho          = 410
   nosym            = .true.
   occupations      = 'smearing'
   degauss          = 0.001
   smearing         = 'marzari-vanderbilt'
   nspin            = 1
   input_dft        = 'beef-vdw'
   ntyp             = 3
   nat              = 39
   ibrav            = 0
/
&ELECTRONS
   mixing_mode      = 'local-TF'
/
&IONS
/
&CELL
/
&FCP
/
&RISM
/
ATOMIC_SPECIES
Pt 195.084 Pt.pbe-n-kjpaw_psl.1.0.0.UPF
C 12.011 C.pbe-n-kjpaw_psl.1.0.0.UPF
H 1.008 H.pbe-kjpaw_psl.1.0.0.UPF

K_POINTS automatic
5 5 1  0 0 0

CELL_PARAMETERS angstrom
8.48528137423857 0.00000000000000 0.00000000000000
4.24264068711929 7.34846922834953 0.00000000000000
0.00000000000000 0.00000000000000 23.92820323027551

ATOMIC_POSITIONS angstrom
Pt 0.0000000000 0.0000000000 8.5000000000   0 0 0
Pt 2.8284271247 0.0000000000 8.5000000000   0 0 0
Pt 5.6568542495 0.0000000000 8.5000000000   0 0 0
Pt 1.4142135624 2.4494897428 8.5000000000   0 0 0
Pt 4.2426406871 2.4494897428 8.5000000000   0 0 0
Pt 7.0710678119 2.4494897428 8.5000000000   0 0 0
Pt 2.8284271247 4.8989794856 8.5000000000   0 0 0
Pt 5.6568542495 4.8989794856 8.5000000000   0 0 0
Pt 8.4852813742 4.8989794856 8.5000000000   0 0 0
Pt 1.4142135624 0.8164965809 10.8094010768   0 0 0
Pt 4.2426406871 0.8164965809 10.8094010768   0 0 0
Pt 7.0710678119 0.8164965809 10.8094010768   0 0 0
Pt 2.8284271247 3.2659863237 10.8094010768   0 0 0
Pt 5.6568542495 3.2659863237 10.8094010768   0 0 0
Pt 8.4852813742 3.2659863237 10.8094010768   0 0 0
Pt 4.2426406871 5.7154760665 10.8094010768   0 0 0
Pt 7.0710678119 5.7154760665 10.8094010768   0 0 0
Pt 9.8994949366 5.7154760665 10.8094010768   0 0 0
Pt 0.0157783411 1.6545948536 13.1393115942  
Pt 2.8119646726 1.6545262813 13.1393212985  
Pt 5.6566024386 1.6592368876 13.0527852703  
Pt 1.4138415307 4.1054075376 13.1179687725  
Pt 4.2290190770 4.1177275918 13.1093255535  
Pt 7.0841127224 4.1177192142 13.1093150431  
Pt 2.8538945190 6.5651163302 13.1389581884  
Pt 5.6565201957 6.5701033732 13.1419810858  
Pt 8.4591079602 6.5650318990 13.1389117291  
Pt -0.0252144277 0.0624979236 15.6053744318  
Pt 2.8523503337 0.0624040090 15.6054490200  
Pt 5.6562426159 0.0952098141 15.3983392640  
Pt 1.4135839078 2.5698568047 15.6117592066  
Pt 4.2861560759 2.4911300878 15.3912382899  
Pt 7.0264218165 2.4911082069 15.3911999227  
Pt 2.9185652490 5.0141791222 15.5299326780  
Pt 5.6563743220 4.9149639447 15.4174399512  
Pt 8.3940974591 5.0141896508 15.5300532061  
C 1.4135295679 0.8728403685 16.7019506283  
H 1.4134033577 1.0544676159 17.7743481230  
C 1.4137528597 4.3341570938 16.4944172177  

