Pt  H                                   
   1.00000000000000     
     8.4683100000000007    0.0000000000000000    0.0000000000000000
     4.2341550000000012    7.3337715871217997    0.0000000000000000
     0.0000000000000000    0.0000000000000000   24.9656619900000010
  Pt/3ed90460ade  H/030f79b5d3ab
              36               1
Selective dynamics
Direct
  0.0000000000000000  0.0000000000000000  0.3404676392480468   F   F   F
  0.3340013680115845  0.0000000000000000  0.3404676392480468   F   F   F
  0.6680027360231691  0.0000000000000000  0.3404676392480468   F   F   F
  0.0000000000000000  0.3340013680115845  0.3404676392480468   F   F   F
  0.3340013680115845  0.3340013680115845  0.3404676392480468   F   F   F
  0.6680027360231691  0.3340013680115845  0.3404676392480468   F   F   F
  0.0000000000000000  0.6680027360231691  0.3404676392480468   F   F   F
  0.3340013680115845  0.6680027360231691  0.3404676392480468   F   F   F
  0.6680027360231691  0.6680027360231691  0.3404676392480468   F   F   F
  0.1113337893371948  0.1113337893371948  0.4329707372105034   F   F   F
  0.4453351573487794  0.1113337893371948  0.4329707372105034   F   F   F
  0.7793365253603639  0.1113337893371948  0.4329707372105034   F   F   F
  0.1113337893371948  0.4453351573487794  0.4329707372105034   F   F   F
  0.4453351573487794  0.4453351573487794  0.4329707372105034   F   F   F
  0.7793365253603639  0.4453351573487794  0.4329707372105034   F   F   F
  0.1113337893371948  0.7793365253603639  0.4329707372105034   F   F   F
  0.4453351573487794  0.7793365253603639  0.4329707372105034   F   F   F
  0.7793365253603639  0.7793365253603639  0.4329707372105034   F   F   F
  0.8905043878318466  0.2231507753426314  0.5252690882035935   T   T   T
  0.2230945884731028  0.2230980851539144  0.5251848488181778   T   T   T
  0.5567768130261328  0.2230837020785472  0.5242408514182273   T   T   T
  0.8904649955106763  0.5560545147685545  0.5247402299279571   T   T   T
  0.2230980438818477  0.5567716157123073  0.5242410487729856   T   T   T
  0.5568299378795842  0.5568256982810098  0.5242009734866144   T   T   T
  0.8905283621116880  0.8905253368726065  0.5248689301344669   T   T   T
  0.2231483125666500  0.8905005926363430  0.5252687639589695   T   T   T
  0.5560526545670044  0.8904595604370087  0.5247419407207516   T   T   T
  0.9983245819999524  0.9983219473664846  0.6197271847282195   T   T   T
  0.3400509149750590  0.9984361360788085  0.6195918674136180   T   T   T
  0.6677389351830598  0.0014245798110508  0.6179101615218059   T   T   T
  0.9984414004114797  0.3400460656562174  0.6195926812259671   T   T   T
  0.3356345058898924  0.3356308304870481  0.6175496227457486   T   T   T
  0.6657074592575398  0.3356091391427398  0.6175283156180811   T   T   T
  0.0014280425747586  0.6677322225708267  0.6179094796446449   T   T   T
  0.3356136619588099  0.6657031190559763  0.6175286764632801   T   T   T
  0.6677676376323802  0.6677594867565162  0.6178140329948150   T   T   T
  0.1122489873745849  0.1122481008777072  0.6532138728128345   T   T   T
 
  0.00000000E+00  0.00000000E+00  0.00000000E+00
  0.00000000E+00  0.00000000E+00  0.00000000E+00
  0.00000000E+00  0.00000000E+00  0.00000000E+00
  0.00000000E+00  0.00000000E+00  0.00000000E+00
  0.00000000E+00  0.00000000E+00  0.00000000E+00
  0.00000000E+00  0.00000000E+00  0.00000000E+00
  0.00000000E+00  0.00000000E+00  0.00000000E+00
  0.00000000E+00  0.00000000E+00  0.00000000E+00
  0.00000000E+00  0.00000000E+00  0.00000000E+00
  0.00000000E+00  0.00000000E+00  0.00000000E+00
  0.00000000E+00  0.00000000E+00  0.00000000E+00
  0.00000000E+00  0.00000000E+00  0.00000000E+00
  0.00000000E+00  0.00000000E+00  0.00000000E+00
  0.00000000E+00  0.00000000E+00  0.00000000E+00
  0.00000000E+00  0.00000000E+00  0.00000000E+00
  0.00000000E+00  0.00000000E+00  0.00000000E+00
  0.00000000E+00  0.00000000E+00  0.00000000E+00
  0.00000000E+00  0.00000000E+00  0.00000000E+00
  0.00000000E+00  0.00000000E+00  0.00000000E+00
  0.00000000E+00  0.00000000E+00  0.00000000E+00
  0.00000000E+00  0.00000000E+00  0.00000000E+00
  0.00000000E+00  0.00000000E+00  0.00000000E+00
  0.00000000E+00  0.00000000E+00  0.00000000E+00
  0.00000000E+00  0.00000000E+00  0.00000000E+00
  0.00000000E+00  0.00000000E+00  0.00000000E+00
  0.00000000E+00  0.00000000E+00  0.00000000E+00
  0.00000000E+00  0.00000000E+00  0.00000000E+00
  0.00000000E+00  0.00000000E+00  0.00000000E+00
  0.00000000E+00  0.00000000E+00  0.00000000E+00
  0.00000000E+00  0.00000000E+00  0.00000000E+00
  0.00000000E+00  0.00000000E+00  0.00000000E+00
  0.00000000E+00  0.00000000E+00  0.00000000E+00
  0.00000000E+00  0.00000000E+00  0.00000000E+00
  0.00000000E+00  0.00000000E+00  0.00000000E+00
  0.00000000E+00  0.00000000E+00  0.00000000E+00
  0.00000000E+00  0.00000000E+00  0.00000000E+00
  0.00000000E+00  0.00000000E+00  0.00000000E+00
