Pt  H 
 1.0000000000000000
     8.4683100000000007    0.0000000000000000    0.0000000000000000
     4.2341550000000012    7.3337715871217997    0.0000000000000000
     0.0000000000000000    0.0000000000000000   24.9656619900000010
 Pt  H  
  36   1
Selective dynamics
Cartesian
  0.0000000000000000  0.0000000000000000  8.5000000000000000   F   F   F
  2.8284271247461903  0.0000000000000000  8.5000000000000000   F   F   F
  5.6568542494923806  0.0000000000000000  8.5000000000000000   F   F   F
  1.4142135623730951  2.4494897427831779  8.5000000000000000   F   F   F
  4.2426406871192857  2.4494897427831779  8.5000000000000000   F   F   F
  7.0710678118654755  2.4494897427831779  8.5000000000000000   F   F   F
  2.8284271247461903  4.8989794855663558  8.5000000000000000   F   F   F
  5.6568542494923806  4.8989794855663558  8.5000000000000000   F   F   F
  8.4852813742385713  4.8989794855663558  8.5000000000000000   F   F   F
  1.4142135623730951  0.8164965809277259 10.8094010767585029   F   F   F
  4.2426406871192848  0.8164965809277259 10.8094010767585029   F   F   F
  7.0710678118654755  0.8164965809277259 10.8094010767585029   F   F   F
  2.8284271247461903  3.2659863237109037 10.8094010767585029   F   F   F
  5.6568542494923806  3.2659863237109037 10.8094010767585029   F   F   F
  8.4852813742385713  3.2659863237109037 10.8094010767585029   F   F   F
  4.2426406871192857  5.7154760664940820 10.8094010767585029   F   F   F
  7.0710678118654755  5.7154760664940820 10.8094010767585029   F   F   F
  9.8994949366116671  5.7154760664940820 10.8094010767585029   F   F   F
  0.0176121836911690  1.6365368158519731 13.1136905098864744   T   T   T
  2.8338660072575630  1.6361503980430567 13.1115874178638130   T   T   T
  5.6595296260916959  1.6360449158535799 13.0880198978572899   T   T   T
  1.4268446301128612  4.0779768013004167 13.1004872129362671   T   T   T
  4.2467207165114349  4.0832358558268158 13.0880248249494056   T   T   T
  7.0730948457500915  4.0836324850325258 13.0870243188957200   T   T   T
  2.8435825418998788  6.5309094131683798 13.1037002987900433   T   T   T
  5.6602066236054229  6.5307279445915158 13.1136824149046554   T   T   T
  8.4791700553184413  6.5304270238138864 13.1005299240109707   T   T   T
 -0.0212930939524718 -0.0123064547253677 15.4718994199390920   T   T   T
  2.8730349215512070 -0.0114690207913360 15.4685211336013531   T   T   T
  5.6606521939299093  0.0104475429418730 15.4265362327396947   T   T   T
  1.4266090446471211  2.4938201746221194 15.4685414509653647   T   T   T
  4.2633700016333353  2.4614398483880211 15.4175351435224588   T   T   T
  7.0584382488521866  2.4612807690234559 15.4170031969750596   T   T   T
  2.8393748360756503  4.8969956016955996 15.4265192092249261   T   T   T
  5.6607707197688653  4.8821146199910732 15.4170122057144017   T   T   T
  8.4822605330861798  4.8971955510059679 15.4241363204272428   T   T   T
  1.4258350798459294  0.8232019329252867 16.3079167558241380   T   T   T
