&CONTROL
   tprnfor          = .true.
   pseudo_dir       = '/users/kbadger1/espresso/pseudo/pslibrary.1.0.0/pbe/PSEUDOPOTENTIALS/'
/
&SYSTEM
   ecutwfc          = 40
   ecutrho          = 410
   nosym            = .true.
   occupations      = 'smearing'
   degauss          = 0.02
   smearing         = 'marzari-vanderbilt'
   nspin            = 1
   input_dft        = 'beef-vdw'
   ntyp             = 2
   nat              = 37
   ibrav            = 0
/
&ELECTRONS
   mixing_mode      = 'local-TF'
/
&IONS
/
&CELL
/
&FCP
/
&RISM
/
ATOMIC_SPECIES
Pt 195.084 Pt.pbe-n-kjpaw_psl.1.0.0.UPF
H 1.008 H.pbe-kjpaw_psl.1.0.0.UPF

K_POINTS automatic
5 5 1  0 0 0

CELL_PARAMETERS angstrom
8.46831000000000 0.00000000000000 0.00000000000000
4.23415500000000 7.33377158712180 0.00000000000000
0.00000000000000 0.00000000000000 24.96566199000000

ATOMIC_POSITIONS angstrom
Pt 0.0000000000 0.0000000000 8.5000000000   0 0 0
Pt 2.8284271247 0.0000000000 8.5000000000   0 0 0
Pt 5.6568542495 0.0000000000 8.5000000000   0 0 0
Pt 1.4142135624 2.4494897428 8.5000000000   0 0 0
Pt 4.2426406871 2.4494897428 8.5000000000   0 0 0
Pt 7.0710678119 2.4494897428 8.5000000000   0 0 0
Pt 2.8284271247 4.8989794856 8.5000000000   0 0 0
Pt 5.6568542495 4.8989794856 8.5000000000   0 0 0
Pt 8.4852813742 4.8989794856 8.5000000000   0 0 0
Pt 1.4142135624 0.8164965809 10.8094010768   0 0 0
Pt 4.2426406871 0.8164965809 10.8094010768   0 0 0
Pt 7.0710678119 0.8164965809 10.8094010768   0 0 0
Pt 2.8284271247 3.2659863237 10.8094010768   0 0 0
Pt 5.6568542495 3.2659863237 10.8094010768   0 0 0
Pt 8.4852813742 3.2659863237 10.8094010768   0 0 0
Pt 4.2426406871 5.7154760665 10.8094010768   0 0 0
Pt 7.0710678119 5.7154760665 10.8094010768   0 0 0
Pt 9.8994949366 5.7154760665 10.8094010768   0 0 0
Pt 0.0143269423 1.6193274184 13.1052512645  
Pt 2.8325185575 1.6183022855 13.1025786337  
Pt 5.6579717343 1.6190998212 13.0908903882  
Pt 1.4242817416 4.0353211507 13.1359126099  
Pt 4.2456263212 4.0639511376 13.0939871512  
Pt 7.0704347403 4.0642577273 13.0930776696  
Pt 2.8348559973 6.5018065052 13.0964547535  
Pt 5.6584661102 6.5088767196 13.0970716592  
Pt 8.4839808892 6.5009241070 13.0930028527  
Pt -0.0024259506 -0.0463227253 15.4224932387  
Pt 2.8532194920 -0.0461298616 15.4206187990  
Pt 5.6590111978 -0.0313206086 15.4272081919  
Pt 1.4252374731 2.3938077753 15.5306280859  
Pt 4.2541012687 2.4138600201 15.4213529405  
Pt 7.0643067823 2.4140861896 15.4218011254  
Pt 2.8361830296 4.8572543351 15.4322999248  
Pt 5.6593412468 4.8541346914 15.4227543018  
Pt 8.4823540613 4.8575735927 15.4312153019  
H 1.4244746005 1.7680426724 16.9653238020  

