&CONTROL
   tprnfor          = .true.
   pseudo_dir       = '/users/kbadger1/espresso/pseudo/pslibrary.1.0.0/pbe/PSEUDOPOTENTIALS/'
/
&SYSTEM
   ecutwfc          = 40
   ecutrho          = 410
   nosym            = .true.
   occupations      = 'smearing'
   degauss          = 0.02
   smearing         = 'marzari-vanderbilt'
   nspin            = 1
   input_dft        = 'beef-vdw'
   ntyp             = 2
   nat              = 37
   ibrav            = 0
/
&ELECTRONS
   conv_thr         = 1e-08
   mixing_mode      = 'local-TF'
/
&IONS
/
&CELL
/
&FCP
/
&RISM
/
ATOMIC_SPECIES
Pt 195.084 Pt.pbe-n-kjpaw_psl.1.0.0.UPF
H 1.008 H.pbe-kjpaw_psl.1.0.0.UPF

K_POINTS automatic
5 5 1  0 0 0

CELL_PARAMETERS angstrom
8.48528137423857 0.00000000000000 0.00000000000000
4.24264068711929 7.34846922834953 0.00000000000000
0.00000000000000 0.00000000000000 23.92820323027551

ATOMIC_POSITIONS angstrom
Pt 0.0000000000 0.0000000000 8.5000000000   0 0 0
Pt 2.8284271247 0.0000000000 8.5000000000   0 0 0
Pt 5.6568542495 0.0000000000 8.5000000000   0 0 0
Pt 1.4142135624 2.4494897428 8.5000000000   0 0 0
Pt 4.2426406871 2.4494897428 8.5000000000   0 0 0
Pt 7.0710678119 2.4494897428 8.5000000000   0 0 0
Pt 2.8284271247 4.8989794856 8.5000000000   0 0 0
Pt 5.6568542495 4.8989794856 8.5000000000   0 0 0
Pt 8.4852813742 4.8989794856 8.5000000000   0 0 0
Pt 1.4142135624 0.8164965809 10.8094010768   0 0 0
Pt 4.2426406871 0.8164965809 10.8094010768   0 0 0
Pt 7.0710678119 0.8164965809 10.8094010768   0 0 0
Pt 2.8284271247 3.2659863237 10.8094010768   0 0 0
Pt 5.6568542495 3.2659863237 10.8094010768   0 0 0
Pt 8.4852813742 3.2659863237 10.8094010768   0 0 0
Pt 4.2426406871 5.7154760665 10.8094010768   0 0 0
Pt 7.0710678119 5.7154760665 10.8094010768   0 0 0
Pt 9.8994949366 5.7154760665 10.8094010768   0 0 0
Pt 0.0019761030 1.6142066282 13.0983897003  
Pt 2.8262574155 1.6143373117 13.0985358836  
Pt 5.6567640690 1.6143623762 13.0883184182  
Pt 1.4142715320 4.0341695617 13.1298671382  
Pt 4.2416871098 4.0639859273 13.0908227809  
Pt 7.0719779035 4.0640177937 13.0907212288  
Pt 2.8263827583 6.5062795375 13.0872913696  
Pt 5.6568142292 6.5143672309 13.0911686530  
Pt 8.4873284748 6.5063035075 13.0871938448  
Pt -0.0170349165 -0.0565855355 15.4112317507  
Pt 2.8452120227 -0.0563228835 15.4109098960  
Pt 5.6567259214 -0.0418145983 15.4175312462  
Pt 1.4135836116 2.3893681966 15.5182432540  
Pt 4.2485983450 2.4088658702 15.4134726841  
Pt 7.0643950120 2.4089886132 15.4133425912  
Pt 2.8276760915 4.8582133421 15.4216015075  
Pt 5.6567542809 4.8545314464 15.4149104927  
Pt 8.4857469866 4.8583003097 15.4214887334  
H 1.4066454653 1.7632285587 16.9527445101  

