&CONTROL
   tprnfor          = .true.
   pseudo_dir       = '/users/kbadger1/espresso/pseudo/pslibrary.1.0.0/pbe/PSEUDOPOTENTIALS/'
/
&SYSTEM
   ecutwfc          = 40
   ecutrho          = 410
   nosym            = .true.
   occupations      = 'smearing'
   degauss          = 0.001
   smearing         = 'marzari-vanderbilt'
   nspin            = 1
   input_dft        = 'beef-vdw'
   ntyp             = 3
   nat              = 38
   ibrav            = 0
/
&ELECTRONS
   mixing_mode      = 'local-TF'
/
&IONS
/
&CELL
/
&FCP
/
&RISM
/
ATOMIC_SPECIES
Pt 195.084 Pt.pbe-n-kjpaw_psl.1.0.0.UPF
C 12.011 C.pbe-n-kjpaw_psl.1.0.0.UPF
H 1.008 H.pbe-kjpaw_psl.1.0.0.UPF

K_POINTS automatic
5 5 1  0 0 0

CELL_PARAMETERS angstrom
8.48528137423857 0.00000000000000 0.00000000000000
4.24264068711929 7.34846922834953 0.00000000000000
0.00000000000000 0.00000000000000 23.92820323027551

ATOMIC_POSITIONS angstrom
Pt 0.0000000000 0.0000000000 8.5000000000   0 0 0
Pt 2.8284271247 0.0000000000 8.5000000000   0 0 0
Pt 5.6568542495 0.0000000000 8.5000000000   0 0 0
Pt 1.4142135624 2.4494897428 8.5000000000   0 0 0
Pt 4.2426406871 2.4494897428 8.5000000000   0 0 0
Pt 7.0710678119 2.4494897428 8.5000000000   0 0 0
Pt 2.8284271247 4.8989794856 8.5000000000   0 0 0
Pt 5.6568542495 4.8989794856 8.5000000000   0 0 0
Pt 8.4852813742 4.8989794856 8.5000000000   0 0 0
Pt 1.4142135624 0.8164965809 10.8094010768   0 0 0
Pt 4.2426406871 0.8164965809 10.8094010768   0 0 0
Pt 7.0710678119 0.8164965809 10.8094010768   0 0 0
Pt 2.8284271247 3.2659863237 10.8094010768   0 0 0
Pt 5.6568542495 3.2659863237 10.8094010768   0 0 0
Pt 8.4852813742 3.2659863237 10.8094010768   0 0 0
Pt 4.2426406871 5.7154760665 10.8094010768   0 0 0
Pt 7.0710678119 5.7154760665 10.8094010768   0 0 0
Pt 9.8994949366 5.7154760665 10.8094010768   0 0 0
Pt 0.0114311872 1.6441254324 13.1336139266  
Pt 2.8168979924 1.6440989088 13.1336480645  
Pt 5.6568609866 1.6521268401 13.0847087164  
Pt 1.4141592241 4.0789529292 13.1434509460  
Pt 4.2378948825 4.1014803321 13.0822301867  
Pt 7.0758229846 4.1014753936 13.0821920328  
Pt 2.8413700636 6.5625563064 13.1224096736  
Pt 5.6568591188 6.5609854394 13.1244622681  
Pt 8.4722924393 6.5625390573 13.1223708939  
Pt -0.0800885133 0.0030092567 15.5602638845  
Pt 2.9085068137 0.0029453890 15.5602225160  
Pt 5.6568643242 0.0515680390 15.4389730873  
Pt 1.4141795621 2.6533819764 15.5708485839  
Pt 4.2718549160 2.5103738252 15.4000985595  
Pt 7.0419012967 2.5103699631 15.4000083204  
Pt 2.8423342704 4.9635458369 15.4372943160  
Pt 5.6568570737 4.9089052928 15.3940487151  
Pt 8.4713698584 4.9635146552 15.4371654646  
C 1.4142446369 0.8591545813 16.4492969846  
H 1.4143140028 2.0245662917 17.1924173343  

