&CONTROL
   tprnfor          = .true.
   pseudo_dir       = '/users/kbadger1/espresso/pseudo/pslibrary.1.0.0/pbe/PSEUDOPOTENTIALS/'
/
&SYSTEM
   ecutwfc          = 40
   ecutrho          = 410
   nosym            = .true.
   occupations      = 'smearing'
   degauss          = 0.001
   smearing         = 'marzari-vanderbilt'
   nspin            = 1
   input_dft        = 'beef-vdw'
   ntyp             = 3
   nat              = 39
   ibrav            = 0
/
&ELECTRONS
   conv_thr         = 1e-08
   mixing_mode      = 'local-TF'
/
&IONS
/
&CELL
/
&FCP
/
&RISM
/
ATOMIC_SPECIES
Pt 195.084 Pt.pbe-n-kjpaw_psl.1.0.0.UPF
O 15.999 O.pbe-nl-kjpaw_psl.1.0.0.UPF
H 1.008 H.pbe-kjpaw_psl.1.0.0.UPF

K_POINTS automatic
5 5 1  0 0 0

CELL_PARAMETERS angstrom
8.48528137423857 0.00000000000000 0.00000000000000
4.24264068711929 7.34846922834953 0.00000000000000
0.00000000000000 0.00000000000000 23.92820323027551

ATOMIC_POSITIONS angstrom
Pt 0.0000000000 0.0000000000 8.5000000000   0 0 0
Pt 2.8284271247 0.0000000000 8.5000000000   0 0 0
Pt 5.6568542495 0.0000000000 8.5000000000   0 0 0
Pt 1.4142135624 2.4494897428 8.5000000000   0 0 0
Pt 4.2426406871 2.4494897428 8.5000000000   0 0 0
Pt 7.0710678119 2.4494897428 8.5000000000   0 0 0
Pt 2.8284271247 4.8989794856 8.5000000000   0 0 0
Pt 5.6568542495 4.8989794856 8.5000000000   0 0 0
Pt 8.4852813742 4.8989794856 8.5000000000   0 0 0
Pt 1.4142135624 0.8164965809 10.8094010768   0 0 0
Pt 4.2426406871 0.8164965809 10.8094010768   0 0 0
Pt 7.0710678119 0.8164965809 10.8094010768   0 0 0
Pt 2.8284271247 3.2659863237 10.8094010768   0 0 0
Pt 5.6568542495 3.2659863237 10.8094010768   0 0 0
Pt 8.4852813742 3.2659863237 10.8094010768   0 0 0
Pt 4.2426406871 5.7154760665 10.8094010768   0 0 0
Pt 7.0710678119 5.7154760665 10.8094010768   0 0 0
Pt 9.8994949366 5.7154760665 10.8094010768   0 0 0
Pt -0.0669257372 1.6756326723 13.0972044402  
Pt 2.7620272556 1.6819195478 13.1088636515  
Pt 5.5877359516 1.6773271338 13.1047784946  
Pt 1.3426807365 4.1292589149 13.1084984291  
Pt 4.1702920229 4.1166465001 13.1206229503  
Pt 6.9998297740 4.1291129693 13.1042601361  
Pt 2.7647399202 6.5718136998 13.0958772881  
Pt 5.5837911596 6.5740353675 13.0969316956  
Pt 8.4139120953 6.5753644439 13.1000151661  
Pt -0.1405904784 0.0913240588 15.4409824858  
Pt 2.6818469307 0.0771212508 15.4240577309  
Pt 5.5249167170 0.0721486122 15.4209729366  
Pt 1.2611015894 2.5414820741 15.4387283437  
Pt 4.0925131916 2.5534594086 15.4535337182  
Pt 6.9443711492 2.5437886811 15.4293122331  
Pt 2.6809740270 5.0018531644 15.4480604327  
Pt 5.5229248732 4.9992849363 15.4437887017  
Pt 8.3430704580 4.9900703605 15.4492879640  
O 4.3044661355 2.1603192567 17.9465881902  
H 5.0585556579 2.7295276346 18.1665397908  
H 4.6904174188 1.2743792499 17.8280488524  

