&CONTROL
   calculation      = 'ensemble'
   tprnfor          = .true.
   pseudo_dir       = '/users/kbadger1/espresso/pseudo/pslibrary.1.0.0/pbe/PSEUDOPOTENTIALS/'
/
&SYSTEM
   ecutwfc          = 50
   ecutrho          = 410
   nosym            = .true.
   occupations      = 'smearing'
   degauss          = 0.02
   smearing         = 'marzari-vanderbilt'
   nspin            = 1
   input_dft        = 'beef-vdw'
   ntyp             = 5
   nat              = 40
   ibrav            = 0
/
&ELECTRONS
   conv_thr         = 1e-08
   mixing_mode      = 'local-TF'
/
&IONS
/
&CELL
/
&FCP
/
&RISM
/
ATOMIC_SPECIES
Pt 195.084 Pt.pbe-n-kjpaw_psl.1.0.0.UPF
C 12.011 C.pbe-n-kjpaw_psl.1.0.0.UPF
H 1.008 H.pbe-kjpaw_psl.1.0.0.UPF
N 14.007 N.pbe-n-kjpaw_psl.1.0.0.UPF
O 15.999 O.pbe-nl-kjpaw_psl.1.0.0.UPF

K_POINTS automatic
5 5 1  0 0 0

CELL_PARAMETERS angstrom
8.48528137423857 0.00000000000000 0.00000000000000
4.24264068711929 7.34846922834953 0.00000000000000
0.00000000000000 0.00000000000000 23.92820323027551

ATOMIC_POSITIONS angstrom
Pt 0.0000000000 0.0000000000 8.5000000000   0 0 0
Pt 2.8284271247 0.0000000000 8.5000000000   0 0 0
Pt 5.6568542495 0.0000000000 8.5000000000   0 0 0
Pt 1.4142135624 2.4494897428 8.5000000000   0 0 0
Pt 4.2426406871 2.4494897428 8.5000000000   0 0 0
Pt 7.0710678119 2.4494897428 8.5000000000   0 0 0
Pt 2.8284271247 4.8989794856 8.5000000000   0 0 0
Pt 5.6568542495 4.8989794856 8.5000000000   0 0 0
Pt 8.4852813742 4.8989794856 8.5000000000   0 0 0
Pt 1.4142135624 0.8164965809 10.8094010768   0 0 0
Pt 4.2426406871 0.8164965809 10.8094010768   0 0 0
Pt 7.0710678119 0.8164965809 10.8094010768   0 0 0
Pt 2.8284271247 3.2659863237 10.8094010768   0 0 0
Pt 5.6568542495 3.2659863237 10.8094010768   0 0 0
Pt 8.4852813742 3.2659863237 10.8094010768   0 0 0
Pt 4.2426406871 5.7154760665 10.8094010768   0 0 0
Pt 7.0710678119 5.7154760665 10.8094010768   0 0 0
Pt 9.8994949366 5.7154760665 10.8094010768   0 0 0
Pt 0.0103753884 1.6174378782 13.1319539409  
Pt 2.8350032725 1.6343986535 13.0948017849  
Pt 5.6566423483 1.6159067069 13.1255187787  
Pt 1.4234857692 4.0661484388 13.1081709798  
Pt 4.2368612026 4.0576929186 13.1111881745  
Pt 7.0781033812 4.0707179181 13.0742825042  
Pt 2.8292762919 6.5685924346 13.1910504034  
Pt 5.6468862620 6.5276378068 13.1136031522  
Pt 8.5124234396 6.5299709282 13.1019028450  
Pt 0.0004474343 -0.0145178370 15.6965856866  
Pt 2.7941935262 -0.0850679743 15.3935769748  
Pt 5.7490319727 -0.0687028116 15.6606786269  
Pt 1.4186439312 2.4815662528 15.5498101712  
Pt 4.2629159982 2.5285435383 15.5211098680  
Pt 7.0709245801 2.4614705764 15.4114525489  
Pt 2.8432479898 4.9115932706 15.4271419289  
Pt 5.6612235516 4.8491255648 15.3907023166  
Pt 8.4974596800 4.8581968590 15.3950835001  
C 1.4683520628 0.8723238833 16.6791430094  
H 2.5799918701 0.9210904079 17.7183081842  
N 4.1918852561 0.8481202933 16.6591733455  
O 3.7464912011 0.8863874472 17.9019120535  

