&CONTROL
   tprnfor          = .true.
   pseudo_dir       = '/users/kbadger1/espresso/pseudo/pslibrary.1.0.0/pbe/PSEUDOPOTENTIALS/'
/
&SYSTEM
   ecutwfc          = 40
   ecutrho          = 410
   nosym            = .true.
   occupations      = 'smearing'
   degauss          = 0.02
   smearing         = 'marzari-vanderbilt'
   nspin            = 1
   input_dft        = 'beef-vdw'
   ntyp             = 3
   nat              = 38
   ibrav            = 0
/
&ELECTRONS
   conv_thr         = 1e-08
   mixing_mode      = 'local-TF'
/
&IONS
/
&CELL
/
&FCP
/
&RISM
/
ATOMIC_SPECIES
Pt 195.084 Pt.pbe-n-kjpaw_psl.1.0.0.UPF
C 12.011 C.pbe-n-kjpaw_psl.1.0.0.UPF
H 1.008 H.pbe-kjpaw_psl.1.0.0.UPF

K_POINTS automatic
5 5 1  0 0 0

CELL_PARAMETERS angstrom
8.48528137423857 0.00000000000000 0.00000000000000
4.24264068711929 7.34846922834953 0.00000000000000
0.00000000000000 0.00000000000000 23.92820323027551

ATOMIC_POSITIONS angstrom
Pt 0.0000000000 0.0000000000 8.5000000000   0 0 0
Pt 2.8284271247 0.0000000000 8.5000000000   0 0 0
Pt 5.6568542495 0.0000000000 8.5000000000   0 0 0
Pt 1.4142135624 2.4494897428 8.5000000000   0 0 0
Pt 4.2426406871 2.4494897428 8.5000000000   0 0 0
Pt 7.0710678119 2.4494897428 8.5000000000   0 0 0
Pt 2.8284271247 4.8989794856 8.5000000000   0 0 0
Pt 5.6568542495 4.8989794856 8.5000000000   0 0 0
Pt 8.4852813742 4.8989794856 8.5000000000   0 0 0
Pt 1.4142135624 0.8164965809 10.8094010768   0 0 0
Pt 4.2426406871 0.8164965809 10.8094010768   0 0 0
Pt 7.0710678119 0.8164965809 10.8094010768   0 0 0
Pt 2.8284271247 3.2659863237 10.8094010768   0 0 0
Pt 5.6568542495 3.2659863237 10.8094010768   0 0 0
Pt 8.4852813742 3.2659863237 10.8094010768   0 0 0
Pt 4.2426406871 5.7154760665 10.8094010768   0 0 0
Pt 7.0710678119 5.7154760665 10.8094010768   0 0 0
Pt 9.8994949366 5.7154760665 10.8094010768   0 0 0
Pt 0.0123511473 1.6487305341 13.1241636383  
Pt 2.8179881070 1.6487447999 13.1243372241  
Pt 5.6577434569 1.6530253352 13.0801933523  
Pt 1.4152077948 4.0699002811 13.1436323220  
Pt 4.2396099741 4.1020759268 13.0798001439  
Pt 7.0759273643 4.1020859424 13.0797709160  
Pt 2.8406977985 6.5600477895 13.1107346376  
Pt 5.6577939467 6.5603069208 13.1089085789  
Pt 8.4748122657 6.5600838225 13.1108702859  
Pt -0.1141785141 -0.0161865960 15.5247340857  
Pt 2.9463917971 -0.0162638271 15.5252782620  
Pt 5.6587263174 0.0522770446 15.4234059049  
Pt 1.4160967480 2.6212131545 15.6424165704  
Pt 4.2726843750 2.5148379591 15.3972764133  
Pt 7.0448103502 2.5148263094 15.3971808601  
Pt 2.8331206417 4.9555859513 15.4204711706  
Pt 5.6587589996 4.9136685085 15.3923913400  
Pt 8.4844843536 4.9556061291 15.4204674740  
C 1.4159823206 0.7527877671 16.3155602596  
H 1.4164044160 2.3071868218 17.2041049113  

