&CONTROL
   tprnfor          = .true.
   pseudo_dir       = '/users/kbadger1/espresso/pseudo/pslibrary.1.0.0/pbe/PSEUDOPOTENTIALS/'
/
&SYSTEM
   ecutwfc          = 40
   ecutrho          = 410
   nosym            = .true.
   occupations      = 'smearing'
   degauss          = 0.02
   smearing         = 'marzari-vanderbilt'
   nspin            = 1
   input_dft        = 'beef-vdw'
   ntyp             = 3
   nat              = 38
   ibrav            = 0
/
&ELECTRONS
   mixing_mode      = 'local-TF'
/
&IONS
/
&CELL
/
&FCP
/
&RISM
/
ATOMIC_SPECIES
Pt 195.084 Pt.pbe-n-kjpaw_psl.1.0.0.UPF
C 12.011 C.pbe-n-kjpaw_psl.1.0.0.UPF
H 1.008 H.pbe-kjpaw_psl.1.0.0.UPF

K_POINTS automatic
5 5 1  0 0 0

CELL_PARAMETERS angstrom
8.48528137423857 0.00000000000000 0.00000000000000
4.24264068711929 7.34846922834953 0.00000000000000
0.00000000000000 0.00000000000000 23.92820323027551

ATOMIC_POSITIONS angstrom
Pt 0.0000000000 0.0000000000 8.5000000000   0 0 0
Pt 2.8284271247 0.0000000000 8.5000000000   0 0 0
Pt 5.6568542495 0.0000000000 8.5000000000   0 0 0
Pt 1.4142135624 2.4494897428 8.5000000000   0 0 0
Pt 4.2426406871 2.4494897428 8.5000000000   0 0 0
Pt 7.0710678119 2.4494897428 8.5000000000   0 0 0
Pt 2.8284271247 4.8989794856 8.5000000000   0 0 0
Pt 5.6568542495 4.8989794856 8.5000000000   0 0 0
Pt 8.4852813742 4.8989794856 8.5000000000   0 0 0
Pt 1.4142135624 0.8164965809 10.8094010768   0 0 0
Pt 4.2426406871 0.8164965809 10.8094010768   0 0 0
Pt 7.0710678119 0.8164965809 10.8094010768   0 0 0
Pt 2.8284271247 3.2659863237 10.8094010768   0 0 0
Pt 5.6568542495 3.2659863237 10.8094010768   0 0 0
Pt 8.4852813742 3.2659863237 10.8094010768   0 0 0
Pt 4.2426406871 5.7154760665 10.8094010768   0 0 0
Pt 7.0710678119 5.7154760665 10.8094010768   0 0 0
Pt 9.8994949366 5.7154760665 10.8094010768   0 0 0
Pt 0.0039655670 1.6409933481 13.1073386571  
Pt 2.8220991906 1.6409962579 13.1072197170  
Pt 5.6557764701 1.6443085778 13.0815304772  
Pt 1.4131130118 4.1080478927 13.0854603365  
Pt 4.2380820948 4.0979955590 13.0838126250  
Pt 7.0733913385 4.0979647198 13.0839110278  
Pt 2.8428643259 6.5590251938 13.1126686384  
Pt 5.6556425160 6.5546215341 13.1164707356  
Pt 8.4686458617 6.5589867457 13.1125908181  
Pt -0.0505462228 0.0209262352 15.5559665077  
Pt 2.8745552018 0.0209411737 15.5554588223  
Pt 5.6546787158 0.0415370355 15.4232121595  
Pt 1.4118296701 2.6423367711 15.4270459842  
Pt 4.2703533274 2.5035534356 15.4016736675  
Pt 7.0387472124 2.5035527056 15.4018523759  
Pt 2.8404345345 4.9641178469 15.4269737829  
Pt 5.6545183891 4.9061565759 15.4057393282  
Pt 8.4685775463 4.9640673860 15.4270862973  
C 1.4122020061 0.9563936516 16.5054783421  
H 1.4119030874 1.6946325531 17.3481155494  

