&CONTROL
   tprnfor          = .true.
   pseudo_dir       = '/users/kbadger1/espresso/pseudo/pslibrary.1.0.0/pbe/PSEUDOPOTENTIALS/'
/
&SYSTEM
   ecutwfc          = 40
   ecutrho          = 410
   nosym            = .true.
   occupations      = 'smearing'
   degauss          = 0.02
   smearing         = 'marzari-vanderbilt'
   nspin            = 1
   input_dft        = 'beef-vdw'
   ntyp             = 3
   nat              = 38
   ibrav            = 0
/
&ELECTRONS
   mixing_mode      = 'local-TF'
/
&IONS
/
&CELL
/
&FCP
/
&RISM
/
ATOMIC_SPECIES
Pt 195.084 Pt.pbe-n-kjpaw_psl.1.0.0.UPF
H 1.008 H.pbe-kjpaw_psl.1.0.0.UPF
C 12.011 C.pbe-n-kjpaw_psl.1.0.0.UPF

K_POINTS automatic
5 5 1  0 0 0

CELL_PARAMETERS angstrom
8.46831000000000 0.00000000000000 0.00000000000000
4.23415500000000 7.33377158712180 0.00000000000000
0.00000000000000 0.00000000000000 24.96566199000000

ATOMIC_POSITIONS angstrom
Pt 0.0000000000 0.0000000000 8.5000000000   0 0 0
Pt 2.8284271247 0.0000000000 8.5000000000   0 0 0
Pt 5.6568542495 0.0000000000 8.5000000000   0 0 0
Pt 1.4142135624 2.4494897428 8.5000000000   0 0 0
Pt 4.2426406871 2.4494897428 8.5000000000   0 0 0
Pt 7.0710678119 2.4494897428 8.5000000000   0 0 0
Pt 2.8284271247 4.8989794856 8.5000000000   0 0 0
Pt 5.6568542495 4.8989794856 8.5000000000   0 0 0
Pt 8.4852813742 4.8989794856 8.5000000000   0 0 0
Pt 1.4142135624 0.8164965809 10.8094010768   0 0 0
Pt 4.2426406871 0.8164965809 10.8094010768   0 0 0
Pt 7.0710678119 0.8164965809 10.8094010768   0 0 0
Pt 2.8284271247 3.2659863237 10.8094010768   0 0 0
Pt 5.6568542495 3.2659863237 10.8094010768   0 0 0
Pt 8.4852813742 3.2659863237 10.8094010768   0 0 0
Pt 4.2426406871 5.7154760665 10.8094010768   0 0 0
Pt 7.0710678119 5.7154760665 10.8094010768   0 0 0
Pt 9.8994949366 5.7154760665 10.8094010768   0 0 0
Pt 0.0152980638 1.6478884345 13.1145079969  
Pt 2.8286789599 1.6470322797 13.1118528334  
Pt 5.6565985960 1.6495237034 13.0860776287  
Pt 1.4229160673 4.1114901164 13.0933472362  
Pt 4.2410506624 4.0993257677 13.0882609565  
Pt 7.0723364422 4.0993779935 13.0876572124  
Pt 2.8496333090 6.5555129011 13.1243058092  
Pt 5.6567715481 6.5498724153 13.1225684068  
Pt 8.4656773241 6.5545423570 13.1211080666  
Pt -0.0366408756 0.0353661250 15.5704962743  
Pt 2.8787240607 0.0362369132 15.5682674615  
Pt 5.6553079021 0.0562235171 15.4386521687  
Pt 1.4216604580 2.6453443806 15.4372328861  
Pt 4.2747689925 2.5125379337 15.4128032153  
Pt 7.0369058023 2.5126994833 15.4135611967  
Pt 2.8475908929 4.9662745379 15.4424623105  
Pt 5.6560042275 4.9103232272 15.4154922834  
Pt 8.4637265403 4.9666786939 15.4415924182  
H 1.4221613911 1.7089915861 17.3687427797  
C 1.4209704377 0.9683155426 16.5295561589  

