&CONTROL
   tprnfor          = .true.
   pseudo_dir       = '/users/kbadger1/espresso/pseudo/pslibrary.1.0.0/pbe/PSEUDOPOTENTIALS/'
/
&SYSTEM
   ecutwfc          = 40
   ecutrho          = 410
   nosym            = .true.
   occupations      = 'smearing'
   degauss          = 0.001
   smearing         = 'marzari-vanderbilt'
   nspin            = 1
   input_dft        = 'beef-vdw'
   ntyp             = 3
   nat              = 38
   ibrav            = 0
/
&ELECTRONS
   mixing_mode      = 'local-TF'
/
&IONS
/
&CELL
/
&FCP
/
&RISM
/
ATOMIC_SPECIES
Pt 195.084 Pt.pbe-n-kjpaw_psl.1.0.0.UPF
C 12.011 C.pbe-n-kjpaw_psl.1.0.0.UPF
H 1.008 H.pbe-kjpaw_psl.1.0.0.UPF

K_POINTS automatic
5 5 1  0 0 0

CELL_PARAMETERS angstrom
8.48528137423857 0.00000000000000 0.00000000000000
4.24264068711929 7.34846922834953 0.00000000000000
0.00000000000000 0.00000000000000 23.92820323027551

ATOMIC_POSITIONS angstrom
Pt 0.0000000000 0.0000000000 8.5000000000   0 0 0
Pt 2.8284271247 0.0000000000 8.5000000000   0 0 0
Pt 5.6568542495 0.0000000000 8.5000000000   0 0 0
Pt 1.4142135624 2.4494897428 8.5000000000   0 0 0
Pt 4.2426406871 2.4494897428 8.5000000000   0 0 0
Pt 7.0710678119 2.4494897428 8.5000000000   0 0 0
Pt 2.8284271247 4.8989794856 8.5000000000   0 0 0
Pt 5.6568542495 4.8989794856 8.5000000000   0 0 0
Pt 8.4852813742 4.8989794856 8.5000000000   0 0 0
Pt 1.4142135624 0.8164965809 10.8094010768   0 0 0
Pt 4.2426406871 0.8164965809 10.8094010768   0 0 0
Pt 7.0710678119 0.8164965809 10.8094010768   0 0 0
Pt 2.8284271247 3.2659863237 10.8094010768   0 0 0
Pt 5.6568542495 3.2659863237 10.8094010768   0 0 0
Pt 8.4852813742 3.2659863237 10.8094010768   0 0 0
Pt 4.2426406871 5.7154760665 10.8094010768   0 0 0
Pt 7.0710678119 5.7154760665 10.8094010768   0 0 0
Pt 9.8994949366 5.7154760665 10.8094010768   0 0 0
Pt 0.0066996792 1.6481989772 13.1205797785  
Pt 2.8217165151 1.6482156504 13.1206150650  
Pt 5.6568367474 1.6535652489 13.0865066381  
Pt 1.4142023615 4.1163973407 13.0964198128  
Pt 4.2384545711 4.1064759381 13.0865988212  
Pt 7.0752192328 4.1064942428 13.0865627457  
Pt 2.8433258890 6.5687153325 13.1229602103  
Pt 5.6568648860 6.5631655328 13.1320032538  
Pt 8.4703731625 6.5687531942 13.1229605023  
Pt -0.0516164497 0.0317866637 15.5733116461  
Pt 2.8800660606 0.0317673927 15.5732969842  
Pt 5.6568747079 0.0582787012 15.4375945799  
Pt 1.4142027047 2.6601145783 15.4439672918  
Pt 4.2716943825 2.5163868126 15.4050671506  
Pt 7.0420090006 2.5163829590 15.4049590357  
Pt 2.8462574547 4.9762974501 15.4413119549  
Pt 5.6568205387 4.9171335089 15.4070673236  
Pt 8.4674374748 4.9762706770 15.4411524257  
C 1.4142391566 0.9682347419 16.5121177420  
H 1.4142927119 1.7125758851 17.3532318989  

