Pt H 
 1.0000000000000000
     8.4683100000000007    0.0000000000000000    0.0000000000000000
     4.2341550000000012    7.3337715871217997    0.0000000000000000
     0.0000000000000000    0.0000000000000000   24.9656619900000010
 Pt  H  
  36   1
Selective dynamics
Cartesian
  0.0000000000000000  0.0000000000000000  8.5000000000000000   F   F   F
  2.8284271247461903  0.0000000000000000  8.5000000000000000   F   F   F
  5.6568542494923806  0.0000000000000000  8.5000000000000000   F   F   F
  1.4142135623730951  2.4494897427831779  8.5000000000000000   F   F   F
  4.2426406871192857  2.4494897427831779  8.5000000000000000   F   F   F
  7.0710678118654755  2.4494897427831779  8.5000000000000000   F   F   F
  2.8284271247461903  4.8989794855663558  8.5000000000000000   F   F   F
  5.6568542494923806  4.8989794855663558  8.5000000000000000   F   F   F
  8.4852813742385713  4.8989794855663558  8.5000000000000000   F   F   F
  1.4142135623730951  0.8164965809277259 10.8094010767585029   F   F   F
  4.2426406871192848  0.8164965809277259 10.8094010767585029   F   F   F
  7.0710678118654755  0.8164965809277259 10.8094010767585029   F   F   F
  2.8284271247461903  3.2659863237109037 10.8094010767585029   F   F   F
  5.6568542494923806  3.2659863237109037 10.8094010767585029   F   F   F
  8.4852813742385713  3.2659863237109037 10.8094010767585029   F   F   F
  4.2426406871192857  5.7154760664940820 10.8094010767585029   F   F   F
  7.0710678118654755  5.7154760664940820 10.8094010767585029   F   F   F
  9.8994949366116671  5.7154760664940820 10.8094010767585029   F   F   F
  0.0197220638561870  1.6442852858200458 13.1083931803464164   T   T   T
  2.8331169764500834  1.6434645759115147 13.1067410075272264   T   T   T
  5.6599669720555381  1.6390751839429656 13.0860078350022437   T   T   T
  1.4268930040330641  4.0710442042814403 13.1197010983688660   T   T   T
  4.2489781351200762  4.0845891798829710 13.0914852977011336   T   T   T
  7.0714459597007684  4.0853720763619448 13.0899019519151523   T   T   T
  2.8396274004978466  6.5289009970069687 13.0934392415864114   T   T   T
  5.6609473028410324  6.5297808535168596 13.0975658549858665   T   T   T
  8.4837209511302198  6.5276387860692520 13.0896901661021499   T   T   T
  0.0098096197781851  0.0041194594539600 15.4191923741980990   T   T   T
  2.8479197767227320  0.0049402374415895 15.4176699808805662   T   T   T
  5.6624251379125603  0.0131595976550224 15.4210563547972157   T   T   T
  1.4281094178738949  2.4469663575996186 15.5215836731403343   T   T   T
  4.2598744281540784  2.4561018728021042 15.4157592827367242   T   T   T
  7.0646953463157853  2.4558572156575620 15.4144685663811210   T   T   T
  2.8421933117054956  4.9082007850667138 15.4193143807952051   T   T   T
  5.6624591364861363  4.9010228286754423 15.4163447367571820   T   T   T
  8.4832260646755131  4.9087431673465254 15.4173839736852045   T   T   T
  1.4283185489452299  2.2454605855543601 17.0649185196844222   T   T   T
