Pt H 
 1.0000000000000000
     8.4683100000000007    0.0000000000000000    0.0000000000000000
     4.2341550000000012    7.3337715871217997    0.0000000000000000
     0.0000000000000000    0.0000000000000000   24.9656619900000010
 Pt  H  
  36   1
Selective dynamics
Cartesian
  0.0000000000000000  0.0000000000000000  8.5000000000000000   F   F   F
  2.8284271247461903  0.0000000000000000  8.5000000000000000   F   F   F
  5.6568542494923806  0.0000000000000000  8.5000000000000000   F   F   F
  1.4142135623730951  2.4494897427831779  8.5000000000000000   F   F   F
  4.2426406871192857  2.4494897427831779  8.5000000000000000   F   F   F
  7.0710678118654755  2.4494897427831779  8.5000000000000000   F   F   F
  2.8284271247461903  4.8989794855663558  8.5000000000000000   F   F   F
  5.6568542494923806  4.8989794855663558  8.5000000000000000   F   F   F
  8.4852813742385713  4.8989794855663558  8.5000000000000000   F   F   F
  1.4142135623730951  0.8164965809277259 10.8094010767585029   F   F   F
  4.2426406871192848  0.8164965809277259 10.8094010767585029   F   F   F
  7.0710678118654755  0.8164965809277259 10.8094010767585029   F   F   F
  2.8284271247461903  3.2659863237109037 10.8094010767585029   F   F   F
  5.6568542494923806  3.2659863237109037 10.8094010767585029   F   F   F
  8.4852813742385713  3.2659863237109037 10.8094010767585029   F   F   F
  4.2426406871192857  5.7154760664940820 10.8094010767585029   F   F   F
  7.0710678118654755  5.7154760664940820 10.8094010767585029   F   F   F
  9.8994949366116671  5.7154760664940820 10.8094010767585029   F   F   F
  0.0157127741983409  1.6614038177369632 13.1128053755914582   T   T   T
  2.8242587494141413  1.6525196393426940 13.1362631195887811   T   T   T
  5.6514123234122282  1.6529863383809826 13.0873402262207641   T   T   T
  1.4132536343477156  4.0855339575091678 13.1175765539452502   T   T   T
  4.2361676113192992  4.0978704946367408 13.0899315923954642   T   T   T
  7.0638169389036785  4.0976339080894562 13.0906129216153015   T   T   T
  2.8274289084074331  6.5424897540282965 13.0864729152695229   T   T   T
  5.6585206496267393  6.5508107060932881 13.1087184334260964   T   T   T
  8.4606228639405874  6.5438537979308231 13.1129961299501403   T   T   T
 -0.0156106442283224  0.0286544995023263 15.4184060881448222   T   T   T
  2.8382772249853474  0.0374487226459658 15.5159715503389020   T   T   T
  5.6539272446606539  0.0348750474305203 15.4181161891277760   T   T   T
  1.4050631349560192  2.5128388875242038 15.5177749415644985   T   T   T
  4.2783078491421538  2.5026122613093849 15.4337993956086983   T   T   T
  7.0621404338658467  2.4838981809147853 15.4218455552885931   T   T   T
  2.8266511466611752  4.9350564286502037 15.4219464761153056   T   T   T
  5.6523512030016567  4.9306012184958128 15.4147387933649451   T   T   T
  8.4691476148636440  4.9314381045389579 15.4293152809816370   T   T   T
  2.3507454627371969  1.4865308948223017 16.5257853185997554   T   T   T
