&CONTROL
   tprnfor          = .true.
   pseudo_dir       = '/users/kbadger1/espresso/pseudo/pslibrary.1.0.0/pbe/PSEUDOPOTENTIALS/'
/
&SYSTEM
   ecutwfc          = 40
   ecutrho          = 410
   nosym            = .true.
   occupations      = 'smearing'
   degauss          = 0.02
   smearing         = 'marzari-vanderbilt'
   nspin            = 1
   input_dft        = 'beef-vdw'
   ntyp             = 2
   nat              = 37
   ibrav            = 0
/
&ELECTRONS
   conv_thr         = 1e-08
   mixing_mode      = 'local-TF'
/
&IONS
/
&CELL
/
&FCP
/
&RISM
/
ATOMIC_SPECIES
Pt 195.084 Pt.pbe-n-kjpaw_psl.1.0.0.UPF
H 1.008 H.pbe-kjpaw_psl.1.0.0.UPF

K_POINTS automatic
5 5 1  0 0 0

CELL_PARAMETERS angstrom
8.48528137423857 0.00000000000000 0.00000000000000
4.24264068711929 7.34846922834953 0.00000000000000
0.00000000000000 0.00000000000000 23.92820323027551

ATOMIC_POSITIONS angstrom
Pt 0.0000000000 0.0000000000 8.5000000000   0 0 0
Pt 2.8284271247 0.0000000000 8.5000000000   0 0 0
Pt 5.6568542495 0.0000000000 8.5000000000   0 0 0
Pt 1.4142135624 2.4494897428 8.5000000000   0 0 0
Pt 4.2426406871 2.4494897428 8.5000000000   0 0 0
Pt 7.0710678119 2.4494897428 8.5000000000   0 0 0
Pt 2.8284271247 4.8989794856 8.5000000000   0 0 0
Pt 5.6568542495 4.8989794856 8.5000000000   0 0 0
Pt 8.4852813742 4.8989794856 8.5000000000   0 0 0
Pt 1.4142135624 0.8164965809 10.8094010768   0 0 0
Pt 4.2426406871 0.8164965809 10.8094010768   0 0 0
Pt 7.0710678119 0.8164965809 10.8094010768   0 0 0
Pt 2.8284271247 3.2659863237 10.8094010768   0 0 0
Pt 5.6568542495 3.2659863237 10.8094010768   0 0 0
Pt 8.4852813742 3.2659863237 10.8094010768   0 0 0
Pt 4.2426406871 5.7154760665 10.8094010768   0 0 0
Pt 7.0710678119 5.7154760665 10.8094010768   0 0 0
Pt 9.8994949366 5.7154760665 10.8094010768   0 0 0
Pt 0.0111324280 1.6372937311 13.0994932152  
Pt 2.8299509438 1.6338135336 13.1104729522  
Pt 5.6638754369 1.6352950801 13.0859927024  
Pt 1.4176208637 4.0733374970 13.1050082170  
Pt 4.2480214013 4.0875460869 13.0859326419  
Pt 7.0775033396 4.0862850294 13.0882991786  
Pt 2.8295316253 6.5326064003 13.0833834983  
Pt 5.6661219441 6.5395733015 13.0993404204  
Pt 8.4793992157 6.5392558424 13.1047798174  
Pt -0.0196952030 -0.0117391837 15.4107414777  
Pt 2.8652920244 -0.0047515157 15.4887570480  
Pt 5.6735264791 0.0098558669 15.4172647784  
Pt 1.4293506394 2.4816966080 15.4896216156  
Pt 4.2863612499 2.4745097750 15.4096607843  
Pt 7.0853241470 2.4607287647 15.4155458488  
Pt 2.8453764110 4.9076997553 15.4174078620  
Pt 5.6738410144 4.9051770100 15.4154302914  
Pt 8.5013732958 4.9073229475 15.4200033992  
H 1.9391331267 1.1161933161 16.4885132687  

