&CONTROL
   tprnfor          = .true.
   pseudo_dir       = '/users/kbadger1/espresso/pseudo/pslibrary.1.0.0/pbe/PSEUDOPOTENTIALS/'
/
&SYSTEM
   ecutwfc          = 40
   ecutrho          = 410
   nosym            = .true.
   occupations      = 'smearing'
   degauss          = 0.001
   smearing         = 'marzari-vanderbilt'
   nspin            = 1
   input_dft        = 'beef-vdw'
   ntyp             = 4
   nat              = 41
   ibrav            = 0
/
&ELECTRONS
   mixing_mode      = 'local-TF'
/
&IONS
/
&CELL
/
&FCP
/
&RISM
/
ATOMIC_SPECIES
Pt 195.084 Pt.pbe-n-kjpaw_psl.1.0.0.UPF
O 15.999 O.pbe-nl-kjpaw_psl.1.0.0.UPF
H 1.008 H.pbe-kjpaw_psl.1.0.0.UPF
C 12.011 C.pbe-n-kjpaw_psl.1.0.0.UPF

K_POINTS automatic
5 5 1  0 0 0

CELL_PARAMETERS angstrom
8.48528137423857 0.00000000000000 0.00000000000000
4.24264068711929 7.34846922834953 0.00000000000000
0.00000000000000 0.00000000000000 23.92820323027551

ATOMIC_POSITIONS angstrom
Pt 0.0000000000 0.0000000000 8.5000000000   0 0 0
Pt 2.8284271247 0.0000000000 8.5000000000   0 0 0
Pt 5.6568542495 0.0000000000 8.5000000000   0 0 0
Pt 1.4142135624 2.4494897428 8.5000000000   0 0 0
Pt 4.2426406871 2.4494897428 8.5000000000   0 0 0
Pt 7.0710678119 2.4494897428 8.5000000000   0 0 0
Pt 2.8284271247 4.8989794856 8.5000000000   0 0 0
Pt 5.6568542495 4.8989794856 8.5000000000   0 0 0
Pt 8.4852813742 4.8989794856 8.5000000000   0 0 0
Pt 1.4142135624 0.8164965809 10.8094010768   0 0 0
Pt 4.2426406871 0.8164965809 10.8094010768   0 0 0
Pt 7.0710678119 0.8164965809 10.8094010768   0 0 0
Pt 2.8284271247 3.2659863237 10.8094010768   0 0 0
Pt 5.6568542495 3.2659863237 10.8094010768   0 0 0
Pt 8.4852813742 3.2659863237 10.8094010768   0 0 0
Pt 4.2426406871 5.7154760665 10.8094010768   0 0 0
Pt 7.0710678119 5.7154760665 10.8094010768   0 0 0
Pt 9.8994949366 5.7154760665 10.8094010768   0 0 0
Pt 0.0143284083 1.5565955769 13.1361516621  
Pt 2.8543241194 1.6126690364 13.1152661451  
Pt 5.6560525749 1.6159307775 13.1227990419  
Pt 1.4758758744 4.0825040432 13.1833032871  
Pt 4.2431891639 4.0570690514 13.1385607841  
Pt 7.1379852747 4.0319975792 13.0677342014  
Pt 2.8475680283 6.4727146262 13.1406596393  
Pt 5.6701188760 6.5054501568 13.0779939239  
Pt 8.5046173539 6.4977542900 13.0884797194  
Pt 0.0102468270 -0.0003281935 15.4609561594  
Pt 2.8594030339 -0.0795946139 15.4028837061  
Pt 5.6803103904 -0.0921578326 15.4043042956  
Pt 1.3861910074 2.3781671236 15.3986957825  
Pt 4.3296573397 2.3165782212 15.5277106601  
Pt 7.0967936355 2.3967010818 15.4604622298  
Pt 2.7986429238 4.5897603839 15.9474299605  
Pt 5.7912896593 4.8024161280 15.2931839606  
Pt 8.5196131153 4.8425680966 15.4756465211  
O 4.0413093545 5.9103258517 17.1343106433  
H 3.5137536988 6.1298615092 17.9198893173  
H 4.4527628893 3.5225212051 17.8737045547  
H 2.9924157811 2.4343116976 17.8233481173  
C 3.6905399923 3.0497681372 17.2521486284  

