&CONTROL
   tprnfor          = .true.
   pseudo_dir       = '/users/kbadger1/espresso/pseudo/pslibrary.1.0.0/pbe/PSEUDOPOTENTIALS/'
/
&SYSTEM
   ecutwfc          = 40
   ecutrho          = 410
   nosym            = .true.
   occupations      = 'smearing'
   degauss          = 0.02
   smearing         = 'marzari-vanderbilt'
   nspin            = 1
   input_dft        = 'beef-vdw'
   ntyp             = 2
   nat              = 37
   ibrav            = 0
/
&ELECTRONS
   conv_thr         = 1e-08
   mixing_mode      = 'local-TF'
/
&IONS
/
&CELL
/
&FCP
/
&RISM
/
ATOMIC_SPECIES
Pt 195.084 Pt.pbe-n-kjpaw_psl.1.0.0.UPF
H 1.008 H.pbe-kjpaw_psl.1.0.0.UPF

K_POINTS automatic
5 5 1  0 0 0

CELL_PARAMETERS angstrom
8.48528137423857 0.00000000000000 0.00000000000000
4.24264068711929 7.34846922834953 0.00000000000000
0.00000000000000 0.00000000000000 23.92820323027551

ATOMIC_POSITIONS angstrom
Pt 0.0000000000 0.0000000000 8.5000000000   0 0 0
Pt 2.8284271247 0.0000000000 8.5000000000   0 0 0
Pt 5.6568542495 0.0000000000 8.5000000000   0 0 0
Pt 1.4142135624 2.4494897428 8.5000000000   0 0 0
Pt 4.2426406871 2.4494897428 8.5000000000   0 0 0
Pt 7.0710678119 2.4494897428 8.5000000000   0 0 0
Pt 2.8284271247 4.8989794856 8.5000000000   0 0 0
Pt 5.6568542495 4.8989794856 8.5000000000   0 0 0
Pt 8.4852813742 4.8989794856 8.5000000000   0 0 0
Pt 1.4142135624 0.8164965809 10.8094010768   0 0 0
Pt 4.2426406871 0.8164965809 10.8094010768   0 0 0
Pt 7.0710678119 0.8164965809 10.8094010768   0 0 0
Pt 2.8284271247 3.2659863237 10.8094010768   0 0 0
Pt 5.6568542495 3.2659863237 10.8094010768   0 0 0
Pt 8.4852813742 3.2659863237 10.8094010768   0 0 0
Pt 4.2426406871 5.7154760665 10.8094010768   0 0 0
Pt 7.0710678119 5.7154760665 10.8094010768   0 0 0
Pt 9.8994949366 5.7154760665 10.8094010768   0 0 0
Pt 0.0047625365 1.6239956859 13.1062900165  
Pt 2.8247247291 1.6241992921 13.1051466221  
Pt 5.6573958367 1.6240057038 13.0874816000  
Pt 1.4150714880 4.0572874524 13.1142942706  
Pt 4.2424878744 4.0750319756 13.0891149496  
Pt 7.0723079844 4.0750629541 13.0891002941  
Pt 2.8339228828 6.5247924400 13.0979447291  
Pt 5.6570584374 6.5280773862 13.1024070030  
Pt 8.4826055970 6.5239369002 13.0959156903  
Pt -0.0169689788 -0.0238780044 15.4584950963  
Pt 2.8515791251 -0.0262707999 15.4503218155  
Pt 5.6587336412 -0.0122999142 15.4216317992  
Pt 1.4157692778 2.4649529102 15.4970148682  
Pt 4.2562791203 2.4405939932 15.4153583435  
Pt 7.0583600456 2.4414936693 15.4152807678  
Pt 2.8340443321 4.8909999937 15.4210090050  
Pt 5.6579982889 4.8798626335 15.4170573624  
Pt 8.4828507304 4.8902778403 15.4208000312  
H 1.3819936299 1.1824635573 16.5555219920  

