&CONTROL
   tprnfor          = .true.
   pseudo_dir       = '/users/kbadger1/espresso/pseudo/pslibrary.1.0.0/pbe/PSEUDOPOTENTIALS/'
/
&SYSTEM
   ecutwfc          = 40
   ecutrho          = 410
   nosym            = .true.
   occupations      = 'smearing'
   degauss          = 0.02
   smearing         = 'marzari-vanderbilt'
   nspin            = 1
   input_dft        = 'beef-vdw'
   ntyp             = 2
   nat              = 37
   ibrav            = 0
/
&ELECTRONS
   mixing_mode      = 'local-TF'
/
&IONS
/
&CELL
/
&FCP
/
&RISM
/
ATOMIC_SPECIES
Pt 195.084 Pt.pbe-n-kjpaw_psl.1.0.0.UPF
H 1.008 H.pbe-kjpaw_psl.1.0.0.UPF

K_POINTS automatic
5 5 1  0 0 0

CELL_PARAMETERS angstrom
8.46831000000000 0.00000000000000 0.00000000000000
4.23415500000000 7.33377158712180 0.00000000000000
0.00000000000000 0.00000000000000 24.96566199000000

ATOMIC_POSITIONS angstrom
Pt 0.0000000000 0.0000000000 8.5000000000   0 0 0
Pt 2.8284271247 0.0000000000 8.5000000000   0 0 0
Pt 5.6568542495 0.0000000000 8.5000000000   0 0 0
Pt 1.4142135624 2.4494897428 8.5000000000   0 0 0
Pt 4.2426406871 2.4494897428 8.5000000000   0 0 0
Pt 7.0710678119 2.4494897428 8.5000000000   0 0 0
Pt 2.8284271247 4.8989794856 8.5000000000   0 0 0
Pt 5.6568542495 4.8989794856 8.5000000000   0 0 0
Pt 8.4852813742 4.8989794856 8.5000000000   0 0 0
Pt 1.4142135624 0.8164965809 10.8094010768   0 0 0
Pt 4.2426406871 0.8164965809 10.8094010768   0 0 0
Pt 7.0710678119 0.8164965809 10.8094010768   0 0 0
Pt 2.8284271247 3.2659863237 10.8094010768   0 0 0
Pt 5.6568542495 3.2659863237 10.8094010768   0 0 0
Pt 8.4852813742 3.2659863237 10.8094010768   0 0 0
Pt 4.2426406871 5.7154760665 10.8094010768   0 0 0
Pt 7.0710678119 5.7154760665 10.8094010768   0 0 0
Pt 9.8994949366 5.7154760665 10.8094010768   0 0 0
Pt 0.0139087345 1.6218357923 13.1056517270  
Pt 2.8329695106 1.6206972928 13.1030089314  
Pt 5.6579911826 1.6218633492 13.0911814999  
Pt 1.4242750563 4.0390593292 13.1355763465  
Pt 4.2457363871 4.0674569667 13.0936105797  
Pt 7.0704991894 4.0677516144 13.0927183386  
Pt 2.8357295716 6.5064115117 13.0992310098  
Pt 5.6585324813 6.5131875075 13.1001686918  
Pt 8.4831648726 6.5054754368 13.0957133507  
Pt -0.0053054517 -0.0385852089 15.4316694753  
Pt 2.8563087861 -0.0385304129 15.4296840567  
Pt 5.6591276199 -0.0218707044 15.4293295000  
Pt 1.4253713133 2.4139179468 15.5212763899  
Pt 4.2561090824 2.4241188497 15.4215316217  
Pt 7.0624493665 2.4243915270 15.4218236272  
Pt 2.8378100452 4.8673784172 15.4321601824  
Pt 5.6595048745 4.8626357144 15.4232633481  
Pt 8.4809219848 4.8676885126 15.4310767798  
H 1.4231685687 1.5603880978 16.8513255341  

