&CONTROL
   tprnfor          = .true.
   pseudo_dir       = '/users/kbadger1/espresso/pseudo/pslibrary.1.0.0/pbe/PSEUDOPOTENTIALS/'
/
&SYSTEM
   ecutwfc          = 40
   ecutrho          = 410
   nosym            = .true.
   occupations      = 'smearing'
   degauss          = 0.001
   smearing         = 'marzari-vanderbilt'
   nspin            = 1
   input_dft        = 'beef-vdw'
   ntyp             = 3
   nat              = 38
   ibrav            = 0
/
&ELECTRONS
   mixing_mode      = 'local-TF'
/
&IONS
/
&CELL
/
&FCP
/
&RISM
/
ATOMIC_SPECIES
Pt 195.084 Pt.pbe-n-kjpaw_psl.1.0.0.UPF
C 12.011 C.pbe-n-kjpaw_psl.1.0.0.UPF
H 1.008 H.pbe-kjpaw_psl.1.0.0.UPF

K_POINTS automatic
5 5 1  0 0 0

CELL_PARAMETERS angstrom
8.48528137423857 0.00000000000000 0.00000000000000
4.24264068711929 7.34846922834953 0.00000000000000
0.00000000000000 0.00000000000000 23.92820323027551

ATOMIC_POSITIONS angstrom
Pt 0.0000000000 0.0000000000 8.5000000000   0 0 0
Pt 2.8284271247 0.0000000000 8.5000000000   0 0 0
Pt 5.6568542495 0.0000000000 8.5000000000   0 0 0
Pt 1.4142135624 2.4494897428 8.5000000000   0 0 0
Pt 4.2426406871 2.4494897428 8.5000000000   0 0 0
Pt 7.0710678119 2.4494897428 8.5000000000   0 0 0
Pt 2.8284271247 4.8989794856 8.5000000000   0 0 0
Pt 5.6568542495 4.8989794856 8.5000000000   0 0 0
Pt 8.4852813742 4.8989794856 8.5000000000   0 0 0
Pt 1.4142135624 0.8164965809 10.8094010768   0 0 0
Pt 4.2426406871 0.8164965809 10.8094010768   0 0 0
Pt 7.0710678119 0.8164965809 10.8094010768   0 0 0
Pt 2.8284271247 3.2659863237 10.8094010768   0 0 0
Pt 5.6568542495 3.2659863237 10.8094010768   0 0 0
Pt 8.4852813742 3.2659863237 10.8094010768   0 0 0
Pt 4.2426406871 5.7154760665 10.8094010768   0 0 0
Pt 7.0710678119 5.7154760665 10.8094010768   0 0 0
Pt 9.8994949366 5.7154760665 10.8094010768   0 0 0
Pt 0.0292212944 1.6525975884 13.1756686288  
Pt 2.7996351100 1.6527666237 13.1759841916  
Pt 5.6571004487 1.6590049893 13.0888687294  
Pt 1.4144009470 4.0740403494 13.1272671579  
Pt 4.2384752412 4.0938411841 13.0726776618  
Pt 7.0757902492 4.0938385736 13.0727351833  
Pt 2.8443129532 6.5707075189 13.1110256341  
Pt 5.6571657639 6.5608812590 13.1275438180  
Pt 8.4698665306 6.5708451924 13.1110258979  
Pt -0.1100279457 -0.0266962248 15.5629155981  
Pt 2.9393732107 -0.0263153612 15.5631984461  
Pt 5.6573168899 0.0451857455 15.4268368758  
Pt 1.4143463128 2.6896850814 15.8276502588  
Pt 4.2612234905 2.4979111162 15.4075684385  
Pt 7.0535805354 2.4978049057 15.4074968125  
Pt 2.8464085223 4.9549365331 15.3876504179  
Pt 5.6573566390 4.8982491310 15.3791004004  
Pt 8.4681193694 4.9553071578 15.3877653324  
C 1.4144894433 0.8156171868 16.2833248006  
H 1.4115855670 3.2342338072 17.2935391180  

