Pt H 
 1.0000000000000000
     8.4683100000000007    0.0000000000000000    0.0000000000000000
     4.2341550000000012    7.3337715871217997    0.0000000000000000
     0.0000000000000000    0.0000000000000000   24.9656619900000010
 Pt  H  
  36   1
Selective dynamics
Cartesian
  0.0000000000000000  0.0000000000000000  8.5000000000000000   F   F   F
  2.8284271247461903  0.0000000000000000  8.5000000000000000   F   F   F
  5.6568542494923806  0.0000000000000000  8.5000000000000000   F   F   F
  1.4142135623730951  2.4494897427831779  8.5000000000000000   F   F   F
  4.2426406871192857  2.4494897427831779  8.5000000000000000   F   F   F
  7.0710678118654755  2.4494897427831779  8.5000000000000000   F   F   F
  2.8284271247461903  4.8989794855663558  8.5000000000000000   F   F   F
  5.6568542494923806  4.8989794855663558  8.5000000000000000   F   F   F
  8.4852813742385713  4.8989794855663558  8.5000000000000000   F   F   F
  1.4142135623730951  0.8164965809277259 10.8094010767585029   F   F   F
  4.2426406871192848  0.8164965809277259 10.8094010767585029   F   F   F
  7.0710678118654755  0.8164965809277259 10.8094010767585029   F   F   F
  2.8284271247461903  3.2659863237109037 10.8094010767585029   F   F   F
  5.6568542494923806  3.2659863237109037 10.8094010767585029   F   F   F
  8.4852813742385713  3.2659863237109037 10.8094010767585029   F   F   F
  4.2426406871192857  5.7154760664940820 10.8094010767585029   F   F   F
  7.0710678118654755  5.7154760664940820 10.8094010767585029   F   F   F
  9.8994949366116671  5.7154760664940820 10.8094010767585029   F   F   F
  0.0305432814815140  1.6493345098127443 13.1194543353564956   T   T   T
  2.8413199369105158  1.6372407514681984 13.1150612294182736   T   T   T
  5.6652310843299212  1.6401503781948052 13.0943442839335749   T   T   T
  1.4292487585537834  4.0704975616525729 13.1172829336654573   T   T   T
  4.2514235651783201  4.0794496120614339 13.0948285782676592   T   T   T
  7.0779257049494442  4.0825221136847816 13.0924218962387791   T   T   T
  2.8455780467915086  6.5280040010704807 13.0884514606490203   T   T   T
  5.6681422127742644  6.5291844256769762 13.0968506290615547   T   T   T
  8.4886199051717330  6.5265700202153596 13.0931794741801291   T   T   T
  0.0210934129221605  0.0018255407207555 15.4168603641599518   T   T   T
  2.8648075615816770 -0.0182996293421083 15.4414917776169442   T   T   T
  5.6802832010414681  0.0051921455197020 15.4214492390242217   T   T   T
  1.4482922051193450  2.4435393004777741 15.5181305772459055   T   T   T
  4.2879181898843948  2.4536323237921356 15.4461747309964945   T   T   T
  7.0843301815845807  2.4516977285825012 15.4225338260615441   T   T   T
  2.8537950383361435  4.9076351088791146 15.4173791087366183   T   T   T
  5.6767638972224450  4.8942773194320583 15.4168418005594372   T   T   T
  8.4999689200959221  4.8995319982368422 15.4224756314164093   T   T   T
  2.3763093949622300  1.9473007206815902 16.7324969286383229   T   T   T
