&CONTROL
   tprnfor          = .true.
   pseudo_dir       = '/users/kbadger1/espresso/pseudo/pslibrary.1.0.0/pbe/PSEUDOPOTENTIALS/'
/
&SYSTEM
   ecutwfc          = 40
   ecutrho          = 410
   nosym            = .true.
   occupations      = 'smearing'
   degauss          = 0.02
   smearing         = 'marzari-vanderbilt'
   nspin            = 1
   input_dft        = 'beef-vdw'
   ntyp             = 2
   nat              = 37
   ibrav            = 0
/
&ELECTRONS
   mixing_mode      = 'local-TF'
/
&IONS
/
&CELL
/
&FCP
/
&RISM
/
ATOMIC_SPECIES
Pt 195.084 Pt.pbe-n-kjpaw_psl.1.0.0.UPF
H 1.008 H.pbe-kjpaw_psl.1.0.0.UPF

K_POINTS automatic
5 5 1  0 0 0

CELL_PARAMETERS angstrom
8.46831000000000 0.00000000000000 0.00000000000000
4.23415500000000 7.33377158712180 0.00000000000000
0.00000000000000 0.00000000000000 24.96566199000000

ATOMIC_POSITIONS angstrom
Pt 0.0000000000 0.0000000000 8.5000000000   0 0 0
Pt 2.8284271247 0.0000000000 8.5000000000   0 0 0
Pt 5.6568542495 0.0000000000 8.5000000000   0 0 0
Pt 1.4142135624 2.4494897428 8.5000000000   0 0 0
Pt 4.2426406871 2.4494897428 8.5000000000   0 0 0
Pt 7.0710678119 2.4494897428 8.5000000000   0 0 0
Pt 2.8284271247 4.8989794856 8.5000000000   0 0 0
Pt 5.6568542495 4.8989794856 8.5000000000   0 0 0
Pt 8.4852813742 4.8989794856 8.5000000000   0 0 0
Pt 1.4142135624 0.8164965809 10.8094010768   0 0 0
Pt 4.2426406871 0.8164965809 10.8094010768   0 0 0
Pt 7.0710678119 0.8164965809 10.8094010768   0 0 0
Pt 2.8284271247 3.2659863237 10.8094010768   0 0 0
Pt 5.6568542495 3.2659863237 10.8094010768   0 0 0
Pt 8.4852813742 3.2659863237 10.8094010768   0 0 0
Pt 4.2426406871 5.7154760665 10.8094010768   0 0 0
Pt 7.0710678119 5.7154760665 10.8094010768   0 0 0
Pt 9.8994949366 5.7154760665 10.8094010768   0 0 0
Pt 0.0262600445 1.6449804790 13.1061943370  
Pt 2.8388494789 1.6398825808 13.1171796659  
Pt 5.6670206032 1.6410901542 13.0911331014  
Pt 1.4294738653 4.0766294330 13.1113827494  
Pt 4.2539513087 4.0885628771 13.0911357628  
Pt 7.0775572690 4.0870829361 13.0932704864  
Pt 2.8404212631 6.5299768205 13.0914229129  
Pt 5.6710852629 6.5352749458 13.1062827804  
Pt 8.4787013907 6.5346069638 13.1114631810  
Pt 0.0114355840 0.0085898171 15.4178086445  
Pt 2.8738435912 0.0097005603 15.5054128487  
Pt 5.6839041255 0.0203041477 15.4268421635  
Pt 1.4436766275 2.4867825385 15.5053135319  
Pt 4.3058572191 2.4880300773 15.4245770496  
Pt 7.0938672618 2.4664327757 15.4271392309  
Pt 2.8578240224 4.9151216029 15.4267006229  
Pt 5.6812008268 4.9131609569 15.4273003348  
Pt 8.5026203243 4.9108155679 15.4312791668  
H 2.3154867574 1.3388597120 16.5146010997  

