&CONTROL
   tprnfor          = .true.
   pseudo_dir       = '/users/kbadger1/espresso/pseudo/pslibrary.1.0.0/pbe/PSEUDOPOTENTIALS/'
/
&SYSTEM
   ecutwfc          = 40
   ecutrho          = 410
   nosym            = .true.
   occupations      = 'smearing'
   degauss          = 0.001
   smearing         = 'marzari-vanderbilt'
   nspin            = 1
   input_dft        = 'beef-vdw'
   ntyp             = 3
   nat              = 39
   ibrav            = 0
/
&ELECTRONS
   conv_thr         = 1e-08
   mixing_mode      = 'local-TF'
/
&IONS
/
&CELL
/
&FCP
/
&RISM
/
ATOMIC_SPECIES
Pt 195.084 Pt.pbe-n-kjpaw_psl.1.0.0.UPF
O 15.999 O.pbe-nl-kjpaw_psl.1.0.0.UPF
H 1.008 H.pbe-kjpaw_psl.1.0.0.UPF

K_POINTS automatic
5 5 1  0 0 0

CELL_PARAMETERS angstrom
8.48528137423857 0.00000000000000 0.00000000000000
4.24264068711929 7.34846922834953 0.00000000000000
0.00000000000000 0.00000000000000 23.92820323027551

ATOMIC_POSITIONS angstrom
Pt 0.0000000000 0.0000000000 8.5000000000   0 0 0
Pt 2.8284271247 0.0000000000 8.5000000000   0 0 0
Pt 5.6568542495 0.0000000000 8.5000000000   0 0 0
Pt 1.4142135624 2.4494897428 8.5000000000   0 0 0
Pt 4.2426406871 2.4494897428 8.5000000000   0 0 0
Pt 7.0710678119 2.4494897428 8.5000000000   0 0 0
Pt 2.8284271247 4.8989794856 8.5000000000   0 0 0
Pt 5.6568542495 4.8989794856 8.5000000000   0 0 0
Pt 8.4852813742 4.8989794856 8.5000000000   0 0 0
Pt 1.4142135624 0.8164965809 10.8094010768   0 0 0
Pt 4.2426406871 0.8164965809 10.8094010768   0 0 0
Pt 7.0710678119 0.8164965809 10.8094010768   0 0 0
Pt 2.8284271247 3.2659863237 10.8094010768   0 0 0
Pt 5.6568542495 3.2659863237 10.8094010768   0 0 0
Pt 8.4852813742 3.2659863237 10.8094010768   0 0 0
Pt 4.2426406871 5.7154760665 10.8094010768   0 0 0
Pt 7.0710678119 5.7154760665 10.8094010768   0 0 0
Pt 9.8994949366 5.7154760665 10.8094010768   0 0 0
Pt -0.0604121450 1.6810574178 13.0871153568  
Pt 2.7696443663 1.6967012154 13.1242332973  
Pt 5.5914584648 1.6810444145 13.1207603054  
Pt 1.3455587288 4.1413840148 13.1099477334  
Pt 4.1631222073 4.1048406386 13.1654810170  
Pt 7.0060531878 4.1417000843 13.0955416033  
Pt 2.7545488650 6.5852955464 13.1172720455  
Pt 5.5798767675 6.5773827385 13.0817016479  
Pt 8.4270880782 6.5934150722 13.1149262110  
Pt -0.1365899371 0.1151535696 15.4384686868  
Pt 2.6693209441 0.0874830139 15.3981808332  
Pt 5.5278355711 0.1096524362 15.5368783206  
Pt 1.2636577347 2.5666114419 15.4268107311  
Pt 4.1064053177 2.6053641132 15.5348012319  
Pt 6.9637611557 2.5719456322 15.4062891711  
Pt 2.6799187629 5.0419603615 15.4651983381  
Pt 5.5312163189 5.0293533285 15.4368582558  
Pt 8.3515024311 5.0157769258 15.4477839818  
O 4.2644256310 2.0863860679 17.5587942018  
H 4.9784974209 2.6428976643 17.9169995400  
H 5.0665073670 0.7704003363 16.9471149074  

