&CONTROL
   tprnfor          = .true.
   pseudo_dir       = '/users/kbadger1/espresso/pseudo/pslibrary.1.0.0/pbe/PSEUDOPOTENTIALS/'
/
&SYSTEM
   ecutwfc          = 40
   ecutrho          = 410
   nosym            = .true.
   occupations      = 'smearing'
   degauss          = 0.02
   smearing         = 'marzari-vanderbilt'
   nspin            = 1
   input_dft        = 'beef-vdw'
   ntyp             = 2
   nat              = 37
   ibrav            = 0
/
&ELECTRONS
   mixing_mode      = 'local-TF'
/
&IONS
/
&CELL
/
&FCP
/
&RISM
/
ATOMIC_SPECIES
Pt 195.084 Pt.pbe-n-kjpaw_psl.1.0.0.UPF
H 1.008 H.pbe-kjpaw_psl.1.0.0.UPF

K_POINTS automatic
5 5 1  0 0 0

CELL_PARAMETERS angstrom
8.46831000000000 0.00000000000000 0.00000000000000
4.23415500000000 7.33377158712180 0.00000000000000
0.00000000000000 0.00000000000000 24.96566199000000

ATOMIC_POSITIONS angstrom
Pt 0.0000000000 0.0000000000 8.5000000000   0 0 0
Pt 2.8284271247 0.0000000000 8.5000000000   0 0 0
Pt 5.6568542495 0.0000000000 8.5000000000   0 0 0
Pt 1.4142135624 2.4494897428 8.5000000000   0 0 0
Pt 4.2426406871 2.4494897428 8.5000000000   0 0 0
Pt 7.0710678119 2.4494897428 8.5000000000   0 0 0
Pt 2.8284271247 4.8989794856 8.5000000000   0 0 0
Pt 5.6568542495 4.8989794856 8.5000000000   0 0 0
Pt 8.4852813742 4.8989794856 8.5000000000   0 0 0
Pt 1.4142135624 0.8164965809 10.8094010768   0 0 0
Pt 4.2426406871 0.8164965809 10.8094010768   0 0 0
Pt 7.0710678119 0.8164965809 10.8094010768   0 0 0
Pt 2.8284271247 3.2659863237 10.8094010768   0 0 0
Pt 5.6568542495 3.2659863237 10.8094010768   0 0 0
Pt 8.4852813742 3.2659863237 10.8094010768   0 0 0
Pt 4.2426406871 5.7154760665 10.8094010768   0 0 0
Pt 7.0710678119 5.7154760665 10.8094010768   0 0 0
Pt 9.8994949366 5.7154760665 10.8094010768   0 0 0
Pt 0.0176402759 1.6382054379 13.1104803444  
Pt 2.8311155776 1.6350141139 13.1158739858  
Pt 5.6594969311 1.6361561628 13.0912989947  
Pt 1.4232320159 4.0726042782 13.1109471981  
Pt 4.2463724262 4.0838948443 13.0912460168  
Pt 7.0710792315 4.0829114940 13.0927883946  
Pt 2.8358346147 6.5268614495 13.0995779281  
Pt 5.6613289819 6.5305820406 13.1105038629  
Pt 8.4724711803 6.5306499610 13.1109967177  
Pt -0.0156484577 -0.0081355166 15.4422258886  
Pt 2.8653062805 -0.0057133635 15.4963872230  
Pt 5.6638524545 0.0119030868 15.4325208815  
Pt 1.4268811553 2.4856323024 15.4964129479  
Pt 4.2734988960 2.4682713970 15.4222670597  
Pt 7.0675255768 2.4587443740 15.4276157562  
Pt 2.8415490064 4.9003389765 15.4324420735  
Pt 5.6623520172 4.8925756475 15.4276243899  
Pt 8.4845261065 4.8993443328 15.4320047211  
H 1.7721815413 1.0241053378 16.4493634797  

