Pt  H                                   
   1.00000000000000     
     8.4683100000000007    0.0000000000000000    0.0000000000000000
     4.2341550000000012    7.3337715871217997    0.0000000000000000
     0.0000000000000000    0.0000000000000000   24.9656619900000010
  Pt/3ed90460ade  H/030f79b5d3ab
              36               1
Selective dynamics
Direct
  0.0000000000000000  0.0000000000000000  0.3404676392480468   F   F   F
  0.3340013680115845  0.0000000000000000  0.3404676392480468   F   F   F
  0.6680027360231691  0.0000000000000000  0.3404676392480468   F   F   F
  0.0000000000000000  0.3340013680115845  0.3404676392480468   F   F   F
  0.3340013680115845  0.3340013680115845  0.3404676392480468   F   F   F
  0.6680027360231691  0.3340013680115845  0.3404676392480468   F   F   F
  0.0000000000000000  0.6680027360231691  0.3404676392480468   F   F   F
  0.3340013680115845  0.6680027360231691  0.3404676392480468   F   F   F
  0.6680027360231691  0.6680027360231691  0.3404676392480468   F   F   F
  0.1113337893371948  0.1113337893371948  0.4329707372105034   F   F   F
  0.4453351573487794  0.1113337893371948  0.4329707372105034   F   F   F
  0.7793365253603639  0.1113337893371948  0.4329707372105034   F   F   F
  0.1113337893371948  0.4453351573487794  0.4329707372105034   F   F   F
  0.4453351573487794  0.4453351573487794  0.4329707372105034   F   F   F
  0.7793365253603639  0.4453351573487794  0.4329707372105034   F   F   F
  0.1113337893371948  0.7793365253603639  0.4329707372105034   F   F   F
  0.4453351573487794  0.7793365253603639  0.4329707372105034   F   F   F
  0.7793365253603639  0.7793365253603639  0.4329707372105034   F   F   F
  0.8903649015085549  0.2240840571947587  0.5250946975000801   T   T   T
  0.2229406798250864  0.2240075313516527  0.5250354619345927   T   T   T
  0.5569740695462073  0.2234991191954734  0.5241587863911263   T   T   T
  0.8919377943379487  0.5537771085109924  0.5261825295598470   T   T   T
  0.2235799320936778  0.5571778179266218  0.5243171534065425   T   T   T
  0.5568698473394065  0.5573015812918740  0.5242666944365340   T   T   T
  0.8905733386490979  0.8900147819269151  0.5246122145828949   T   T   T
  0.2232986466109423  0.8909810891796610  0.5247631554333338   T   T   T
  0.5570195984349624  0.8899882054397068  0.5244982182928979   T   T   T
  0.9996998155216446  0.0003811349586726  0.6182347609371206   T   T   T
  0.3382239031414684  0.0004257302447783  0.6182535980470973   T   T   T
  0.6677702700572468  0.0029075489488761  0.6177689660810302   T   T   T
  0.0006590706362530  0.3367656153533929  0.6215897524231764   T   T   T
  0.3356544021466021  0.3362791940849235  0.6174825327045355   T   T   T
  0.6661550599612482  0.3365149804871734  0.6174711075276065   T   T   T
  0.0014573376222344  0.6695841575053265  0.6179312324478587   T   T   T
  0.3349434590137648  0.6685680898465094  0.6174660004902393   T   T   T
  0.6674444829453208  0.6697936391625348  0.6178805140060888   T   T   T
  0.0714018720963026  0.1939604921632636  0.6702135083593248   T   T   T
 
  0.00000000E+00  0.00000000E+00  0.00000000E+00
  0.00000000E+00  0.00000000E+00  0.00000000E+00
  0.00000000E+00  0.00000000E+00  0.00000000E+00
  0.00000000E+00  0.00000000E+00  0.00000000E+00
  0.00000000E+00  0.00000000E+00  0.00000000E+00
  0.00000000E+00  0.00000000E+00  0.00000000E+00
  0.00000000E+00  0.00000000E+00  0.00000000E+00
  0.00000000E+00  0.00000000E+00  0.00000000E+00
  0.00000000E+00  0.00000000E+00  0.00000000E+00
  0.00000000E+00  0.00000000E+00  0.00000000E+00
  0.00000000E+00  0.00000000E+00  0.00000000E+00
  0.00000000E+00  0.00000000E+00  0.00000000E+00
  0.00000000E+00  0.00000000E+00  0.00000000E+00
  0.00000000E+00  0.00000000E+00  0.00000000E+00
  0.00000000E+00  0.00000000E+00  0.00000000E+00
  0.00000000E+00  0.00000000E+00  0.00000000E+00
  0.00000000E+00  0.00000000E+00  0.00000000E+00
  0.00000000E+00  0.00000000E+00  0.00000000E+00
  0.00000000E+00  0.00000000E+00  0.00000000E+00
  0.00000000E+00  0.00000000E+00  0.00000000E+00
  0.00000000E+00  0.00000000E+00  0.00000000E+00
  0.00000000E+00  0.00000000E+00  0.00000000E+00
  0.00000000E+00  0.00000000E+00  0.00000000E+00
  0.00000000E+00  0.00000000E+00  0.00000000E+00
  0.00000000E+00  0.00000000E+00  0.00000000E+00
  0.00000000E+00  0.00000000E+00  0.00000000E+00
  0.00000000E+00  0.00000000E+00  0.00000000E+00
  0.00000000E+00  0.00000000E+00  0.00000000E+00
  0.00000000E+00  0.00000000E+00  0.00000000E+00
  0.00000000E+00  0.00000000E+00  0.00000000E+00
  0.00000000E+00  0.00000000E+00  0.00000000E+00
  0.00000000E+00  0.00000000E+00  0.00000000E+00
  0.00000000E+00  0.00000000E+00  0.00000000E+00
  0.00000000E+00  0.00000000E+00  0.00000000E+00
  0.00000000E+00  0.00000000E+00  0.00000000E+00
  0.00000000E+00  0.00000000E+00  0.00000000E+00
  0.00000000E+00  0.00000000E+00  0.00000000E+00
