Pt  H 
 1.0000000000000000
     8.4683100000000007    0.0000000000000000    0.0000000000000000
     4.2341550000000012    7.3337715871217997    0.0000000000000000
     0.0000000000000000    0.0000000000000000   24.9656619900000010
 Pt  H  
  36   1
Selective dynamics
Cartesian
  0.0000000000000000  0.0000000000000000  8.5000000000000000   F   F   F
  2.8284271247461903  0.0000000000000000  8.5000000000000000   F   F   F
  5.6568542494923806  0.0000000000000000  8.5000000000000000   F   F   F
  1.4142135623730951  2.4494897427831779  8.5000000000000000   F   F   F
  4.2426406871192857  2.4494897427831779  8.5000000000000000   F   F   F
  7.0710678118654755  2.4494897427831779  8.5000000000000000   F   F   F
  2.8284271247461903  4.8989794855663558  8.5000000000000000   F   F   F
  5.6568542494923806  4.8989794855663558  8.5000000000000000   F   F   F
  8.4852813742385713  4.8989794855663558  8.5000000000000000   F   F   F
  1.4142135623730951  0.8164965809277259 10.8094010767585029   F   F   F
  4.2426406871192848  0.8164965809277259 10.8094010767585029   F   F   F
  7.0710678118654755  0.8164965809277259 10.8094010767585029   F   F   F
  2.8284271247461903  3.2659863237109037 10.8094010767585029   F   F   F
  5.6568542494923806  3.2659863237109037 10.8094010767585029   F   F   F
  8.4852813742385713  3.2659863237109037 10.8094010767585029   F   F   F
  4.2426406871192857  5.7154760664940820 10.8094010767585029   F   F   F
  7.0710678118654755  5.7154760664940820 10.8094010767585029   F   F   F
  9.8994949366116671  5.7154760664940820 10.8094010767585029   F   F   F
  0.0203826302853875  1.6433812917819166 13.1093367305282218   T   T   T
  2.8364133972798147  1.6428200687280641 13.1078578754225656   T   T   T
  5.6629589959159867  1.6390914901025249 13.0859710901294761   T   T   T
  1.4296738560573508  4.0612748239963610 13.1364951780343588   T   T   T
  4.2525214184112752  4.0862148500847688 13.0899248275066959   T   T   T
  7.0754477738576869  4.0871225023363920 13.0886650859171372   T   T   T
  2.8418016483853137  6.5271651198140095 13.0972912251018538   T   T   T
  5.6635141957374158  6.5342517964886158 13.1010595633545179   T   T   T
  8.4853626456263136  6.5269702139272283 13.0944452322576872   T   T   T
 -0.0009282707289708  0.0027951567307543 15.4346400720245676   T   T   T
  2.8659874690564937  0.0031222083729401 15.4351103529451787   T   T   T
  5.6671966685480903  0.0213232998694259 15.4230111950908135   T   T   T
  1.4314990285363374  2.4697621013983091 15.5183996554448687   T   T   T
  4.2662837612727262  2.4661947989202537 15.4158601962305255   T   T   T
  7.0660641430250726  2.4679240025376683 15.4155749591252214   T   T   T
  2.8474642951816893  4.9105772694994609 15.4270622823574417   T   T   T
  5.6672259638649241  4.9031256613726146 15.4154474585564163   T   T   T
  8.4881368755989293  4.9121135601250936 15.4257960628834319   T   T   T
  1.4259119751873821  1.4224619464511206 16.7323239108309672   T   T   T
