&CONTROL
   tprnfor          = .true.
   pseudo_dir       = '/users/kbadger1/espresso/pseudo/pslibrary.1.0.0/pbe/PSEUDOPOTENTIALS/'
/
&SYSTEM
   ecutwfc          = 40
   ecutrho          = 410
   nosym            = .true.
   occupations      = 'smearing'
   degauss          = 0.02
   smearing         = 'marzari-vanderbilt'
   nspin            = 1
   input_dft        = 'beef-vdw'
   ntyp             = 3
   nat              = 38
   ibrav            = 0
/
&ELECTRONS
   conv_thr         = 1e-08
   mixing_mode      = 'local-TF'
/
&IONS
/
&CELL
/
&FCP
/
&RISM
/
ATOMIC_SPECIES
Pt 195.084 Pt.pbe-n-kjpaw_psl.1.0.0.UPF
C 12.011 C.pbe-n-kjpaw_psl.1.0.0.UPF
H 1.008 H.pbe-kjpaw_psl.1.0.0.UPF

K_POINTS automatic
5 5 1  0 0 0

CELL_PARAMETERS angstrom
8.48528137423857 0.00000000000000 0.00000000000000
4.24264068711929 7.34846922834953 0.00000000000000
0.00000000000000 0.00000000000000 23.92820323027551

ATOMIC_POSITIONS angstrom
Pt 0.0000000000 0.0000000000 8.5000000000   0 0 0
Pt 2.8284271247 0.0000000000 8.5000000000   0 0 0
Pt 5.6568542495 0.0000000000 8.5000000000   0 0 0
Pt 1.4142135624 2.4494897428 8.5000000000   0 0 0
Pt 4.2426406871 2.4494897428 8.5000000000   0 0 0
Pt 7.0710678119 2.4494897428 8.5000000000   0 0 0
Pt 2.8284271247 4.8989794856 8.5000000000   0 0 0
Pt 5.6568542495 4.8989794856 8.5000000000   0 0 0
Pt 8.4852813742 4.8989794856 8.5000000000   0 0 0
Pt 1.4142135624 0.8164965809 10.8094010768   0 0 0
Pt 4.2426406871 0.8164965809 10.8094010768   0 0 0
Pt 7.0710678119 0.8164965809 10.8094010768   0 0 0
Pt 2.8284271247 3.2659863237 10.8094010768   0 0 0
Pt 5.6568542495 3.2659863237 10.8094010768   0 0 0
Pt 8.4852813742 3.2659863237 10.8094010768   0 0 0
Pt 4.2426406871 5.7154760665 10.8094010768   0 0 0
Pt 7.0710678119 5.7154760665 10.8094010768   0 0 0
Pt 9.8994949366 5.7154760665 10.8094010768   0 0 0
Pt 0.0163614835 1.6452441086 13.1365393353  
Pt 2.8139928161 1.6452576484 13.1367415062  
Pt 5.6577513607 1.6513392867 13.0807185946  
Pt 1.4152114217 4.0606006095 13.1360390988  
Pt 4.2400599062 4.0962709370 13.0782276192  
Pt 7.0754894658 4.0962856459 13.0782057563  
Pt 2.8383476531 6.5537273093 13.1039837431  
Pt 5.6578111218 6.5563048591 13.1116837107  
Pt 8.4771492319 6.5537608565 13.1041536491  
Pt -0.1332307576 -0.0489812758 15.5210188981  
Pt 2.9653819469 -0.0490422456 15.5216844879  
Pt 5.6587069419 0.0398098710 15.4147742037  
Pt 1.4161241158 2.6077223575 15.7135396714  
Pt 4.2675932542 2.4993766163 15.4005169168  
Pt 7.0498996193 2.4993535721 15.4004417014  
Pt 2.8281050990 4.9317802917 15.4074445625  
Pt 5.6587460840 4.8982980586 15.3905985644  
Pt 8.4894684438 4.9317804229 15.4074581649  
C 1.4159251203 0.7239379051 16.2377927696  
H 1.4165494239 2.5772918257 17.2750910414  

