&CONTROL
   tprnfor          = .true.
   pseudo_dir       = '/users/kbadger1/espresso/pseudo/pslibrary.1.0.0/pbe/PSEUDOPOTENTIALS/'
/
&SYSTEM
   ecutwfc          = 40
   ecutrho          = 410
   nosym            = .true.
   occupations      = 'smearing'
   degauss          = 0.02
   smearing         = 'marzari-vanderbilt'
   nspin            = 1
   input_dft        = 'beef-vdw'
   ntyp             = 3
   nat              = 38
   ibrav            = 0
/
&ELECTRONS
   conv_thr         = 1e-08
   mixing_mode      = 'local-TF'
/
&IONS
/
&CELL
/
&FCP
/
&RISM
/
ATOMIC_SPECIES
Pt 195.084 Pt.pbe-n-kjpaw_psl.1.0.0.UPF
C 12.011 C.pbe-n-kjpaw_psl.1.0.0.UPF
H 1.008 H.pbe-kjpaw_psl.1.0.0.UPF

K_POINTS automatic
5 5 1  0 0 0

CELL_PARAMETERS angstrom
8.48528137423857 0.00000000000000 0.00000000000000
4.24264068711929 7.34846922834953 0.00000000000000
0.00000000000000 0.00000000000000 23.92820323027551

ATOMIC_POSITIONS angstrom
Pt 0.0000000000 0.0000000000 8.5000000000   0 0 0
Pt 2.8284271247 0.0000000000 8.5000000000   0 0 0
Pt 5.6568542495 0.0000000000 8.5000000000   0 0 0
Pt 1.4142135624 2.4494897428 8.5000000000   0 0 0
Pt 4.2426406871 2.4494897428 8.5000000000   0 0 0
Pt 7.0710678119 2.4494897428 8.5000000000   0 0 0
Pt 2.8284271247 4.8989794856 8.5000000000   0 0 0
Pt 5.6568542495 4.8989794856 8.5000000000   0 0 0
Pt 8.4852813742 4.8989794856 8.5000000000   0 0 0
Pt 1.4142135624 0.8164965809 10.8094010768   0 0 0
Pt 4.2426406871 0.8164965809 10.8094010768   0 0 0
Pt 7.0710678119 0.8164965809 10.8094010768   0 0 0
Pt 2.8284271247 3.2659863237 10.8094010768   0 0 0
Pt 5.6568542495 3.2659863237 10.8094010768   0 0 0
Pt 8.4852813742 3.2659863237 10.8094010768   0 0 0
Pt 4.2426406871 5.7154760665 10.8094010768   0 0 0
Pt 7.0710678119 5.7154760665 10.8094010768   0 0 0
Pt 9.8994949366 5.7154760665 10.8094010768   0 0 0
Pt 0.0058542552 1.6655997867 13.1100449804  
Pt 2.8246606068 1.6655678112 13.1101681154  
Pt 5.6578601512 1.6650604753 13.0860535490  
Pt 1.4151874476 4.1252676392 13.0887305153  
Pt 4.2425941166 4.1190225258 13.0874589387  
Pt 7.0731038359 4.1190279098 13.0874045416  
Pt 2.8456483326 6.5800004358 13.1106556571  
Pt 5.6579237812 6.5767211762 13.1206933540  
Pt 8.4700994527 6.5800043970 13.1106946130  
Pt -0.0309831157 0.0680747766 15.5647935958  
Pt 2.8634613527 0.0680823783 15.5651685323  
Pt 5.6588675194 0.0790312822 15.4219090211  
Pt 1.4163252833 2.6167074567 15.4795584521  
Pt 4.2742929719 2.5430658030 15.4119494024  
Pt 7.0436559902 2.5430557724 15.4118088155  
Pt 2.8370400054 4.9906579360 15.4180427796  
Pt 5.6589742047 4.9497377046 15.4163474647  
Pt 8.4808154483 4.9907026591 15.4179424916  
C 1.4160873260 0.9805109192 16.5987791202  
H 1.4160085335 1.1551308739 17.6761206012  

