&CONTROL
   tprnfor          = .true.
   pseudo_dir       = '/users/kbadger1/espresso/pseudo/pslibrary.1.0.0/pbe/PSEUDOPOTENTIALS/'
/
&SYSTEM
   ecutwfc          = 40
   ecutrho          = 410
   nosym            = .true.
   occupations      = 'smearing'
   degauss          = 0.02
   smearing         = 'marzari-vanderbilt'
   nspin            = 1
   input_dft        = 'beef-vdw'
   ntyp             = 3
   nat              = 39
   ibrav            = 0
/
&ELECTRONS
   conv_thr         = 1e-08
   mixing_mode      = 'local-TF'
/
&IONS
/
&CELL
/
&FCP
/
&RISM
/
ATOMIC_SPECIES
Pt 195.084 Pt.pbe-n-kjpaw_psl.1.0.0.UPF
O 15.999 O.pbe-nl-kjpaw_psl.1.0.0.UPF
H 1.008 H.pbe-kjpaw_psl.1.0.0.UPF

K_POINTS automatic
5 5 1  0 0 0

CELL_PARAMETERS angstrom
8.48528137423857 0.00000000000000 0.00000000000000
4.24264068711929 7.34846922834953 0.00000000000000
0.00000000000000 0.00000000000000 23.92820323027551

ATOMIC_POSITIONS angstrom
Pt 0.0000000000 0.0000000000 8.5000000000   0 0 0
Pt 2.8284271247 0.0000000000 8.5000000000   0 0 0
Pt 5.6568542495 0.0000000000 8.5000000000   0 0 0
Pt 1.4142135624 2.4494897428 8.5000000000   0 0 0
Pt 4.2426406871 2.4494897428 8.5000000000   0 0 0
Pt 7.0710678119 2.4494897428 8.5000000000   0 0 0
Pt 2.8284271247 4.8989794856 8.5000000000   0 0 0
Pt 5.6568542495 4.8989794856 8.5000000000   0 0 0
Pt 8.4852813742 4.8989794856 8.5000000000   0 0 0
Pt 1.4142135624 0.8164965809 10.8094010768   0 0 0
Pt 4.2426406871 0.8164965809 10.8094010768   0 0 0
Pt 7.0710678119 0.8164965809 10.8094010768   0 0 0
Pt 2.8284271247 3.2659863237 10.8094010768   0 0 0
Pt 5.6568542495 3.2659863237 10.8094010768   0 0 0
Pt 8.4852813742 3.2659863237 10.8094010768   0 0 0
Pt 4.2426406871 5.7154760665 10.8094010768   0 0 0
Pt 7.0710678119 5.7154760665 10.8094010768   0 0 0
Pt 9.8994949366 5.7154760665 10.8094010768   0 0 0
Pt -0.0127491548 1.6518748680 13.0769521631  
Pt 2.8219976590 1.6627039719 13.1133848304  
Pt 5.6398098191 1.6505623115 13.1089318975  
Pt 1.3948356733 4.1075296549 13.0937374392  
Pt 4.2173518039 4.0777061809 13.1424571652  
Pt 7.0537587789 4.1073828402 13.0845303149  
Pt 2.7987229187 6.5570292133 13.1032879429  
Pt 5.6323219967 6.5491701787 13.0725866886  
Pt 8.4753061291 6.5594076936 13.0999914037  
Pt -0.0479039875 0.0515890100 15.4155164441  
Pt 2.7601323135 0.0327492183 15.3858645376  
Pt 5.6103915580 0.0507309473 15.5149828956  
Pt 1.3571070975 2.5033002572 15.4059020338  
Pt 4.2028533968 2.5296946120 15.5238767413  
Pt 7.0519413037 2.5084555810 15.3889119172  
Pt 2.7726917754 4.9762211935 15.4279785858  
Pt 5.6196780453 4.9686944850 15.4144562638  
Pt 8.4405350001 4.9533664181 15.4227813052  
O 4.3072161540 2.1121639726 17.5503624372  
H 5.0525389376 2.6322897131 17.8974201169  
H 5.1877898112 0.6340398030 16.9355677545  

