&CONTROL
   tprnfor          = .true.
   pseudo_dir       = '/users/kbadger1/espresso/pseudo/pslibrary.1.0.0/pbe/PSEUDOPOTENTIALS/'
/
&SYSTEM
   ecutwfc          = 40
   ecutrho          = 410
   nosym            = .true.
   occupations      = 'smearing'
   degauss          = 0.02
   smearing         = 'marzari-vanderbilt'
   nspin            = 1
   input_dft        = 'beef-vdw'
   ntyp             = 2
   nat              = 37
   ibrav            = 0
/
&ELECTRONS
   mixing_mode      = 'local-TF'
/
&IONS
/
&CELL
/
&FCP
/
&RISM
/
ATOMIC_SPECIES
Pt 195.084 Pt.pbe-n-kjpaw_psl.1.0.0.UPF
H 1.008 H.pbe-kjpaw_psl.1.0.0.UPF

K_POINTS automatic
5 5 1  0 0 0

CELL_PARAMETERS angstrom
8.46831000000000 0.00000000000000 0.00000000000000
4.23415500000000 7.33377158712180 0.00000000000000
0.00000000000000 0.00000000000000 24.96566199000000

ATOMIC_POSITIONS angstrom
Pt 0.0000000000 0.0000000000 8.5000000000   0 0 0
Pt 2.8284271247 0.0000000000 8.5000000000   0 0 0
Pt 5.6568542495 0.0000000000 8.5000000000   0 0 0
Pt 1.4142135624 2.4494897428 8.5000000000   0 0 0
Pt 4.2426406871 2.4494897428 8.5000000000   0 0 0
Pt 7.0710678119 2.4494897428 8.5000000000   0 0 0
Pt 2.8284271247 4.8989794856 8.5000000000   0 0 0
Pt 5.6568542495 4.8989794856 8.5000000000   0 0 0
Pt 8.4852813742 4.8989794856 8.5000000000   0 0 0
Pt 1.4142135624 0.8164965809 10.8094010768   0 0 0
Pt 4.2426406871 0.8164965809 10.8094010768   0 0 0
Pt 7.0710678119 0.8164965809 10.8094010768   0 0 0
Pt 2.8284271247 3.2659863237 10.8094010768   0 0 0
Pt 5.6568542495 3.2659863237 10.8094010768   0 0 0
Pt 8.4852813742 3.2659863237 10.8094010768   0 0 0
Pt 4.2426406871 5.7154760665 10.8094010768   0 0 0
Pt 7.0710678119 5.7154760665 10.8094010768   0 0 0
Pt 9.8994949366 5.7154760665 10.8094010768   0 0 0
Pt 0.0210931786 1.6397827736 13.1115100591  
Pt 2.8352274132 1.6374204996 13.1126238435  
Pt 5.6629308638 1.6382436189 13.0906875561  
Pt 1.4281031457 4.0779045074 13.1065045032  
Pt 4.2498389850 4.0857946176 13.0906599571  
Pt 7.0750040069 4.0851425469 13.0911479582  
Pt 2.8443770248 6.5317726498 13.1041577540  
Pt 5.6643769774 6.5327636618 13.1115322840  
Pt 8.4794269965 6.5321579336 13.1065289267  
Pt -0.0020419665 -0.0001511602 15.4639418576  
Pt 2.8815089050 -0.0038176831 15.4849361672  
Pt 5.6740476116 0.0172617681 15.4322683132  
Pt 1.4365683698 2.4988920499 15.4849245159  
Pt 4.2769447891 2.4703788129 15.4231725448  
Pt 7.0727296925 2.4656181402 15.4267326293  
Pt 2.8511306530 4.9065628532 15.4322389117  
Pt 5.6707699081 4.8937720982 15.4267640793  
Pt 8.4925748377 4.9041106609 15.4307760468  
H 1.6035458960 0.9268387251 16.3724323246  

