&CONTROL
   tprnfor          = .true.
   pseudo_dir       = '/users/kbadger1/espresso/pseudo/pslibrary.1.0.0/pbe/PSEUDOPOTENTIALS/'
/
&SYSTEM
   ecutwfc          = 40
   ecutrho          = 410
   nosym            = .true.
   occupations      = 'smearing'
   degauss          = 0.02
   smearing         = 'marzari-vanderbilt'
   nspin            = 1
   input_dft        = 'beef-vdw'
   ntyp             = 2
   nat              = 37
   ibrav            = 0
/
&ELECTRONS
   mixing_mode      = 'local-TF'
/
&IONS
/
&CELL
/
&FCP
/
&RISM
/
ATOMIC_SPECIES
Pt 195.084 Pt.pbe-n-kjpaw_psl.1.0.0.UPF
H 1.008 H.pbe-kjpaw_psl.1.0.0.UPF

K_POINTS automatic
5 5 1  0 0 0

CELL_PARAMETERS angstrom
8.48528137423857 0.00000000000000 0.00000000000000
4.24264068711929 7.34846922834953 0.00000000000000
0.00000000000000 0.00000000000000 23.92820323027551

ATOMIC_POSITIONS angstrom
Pt 0.0000000000 0.0000000000 8.5000000000   0 0 0
Pt 2.8284271247 0.0000000000 8.5000000000   0 0 0
Pt 5.6568542495 0.0000000000 8.5000000000   0 0 0
Pt 1.4142135624 2.4494897428 8.5000000000   0 0 0
Pt 4.2426406871 2.4494897428 8.5000000000   0 0 0
Pt 7.0710678119 2.4494897428 8.5000000000   0 0 0
Pt 2.8284271247 4.8989794856 8.5000000000   0 0 0
Pt 5.6568542495 4.8989794856 8.5000000000   0 0 0
Pt 8.4852813742 4.8989794856 8.5000000000   0 0 0
Pt 1.4142135624 0.8164965809 10.8094010768   0 0 0
Pt 4.2426406871 0.8164965809 10.8094010768   0 0 0
Pt 7.0710678119 0.8164965809 10.8094010768   0 0 0
Pt 2.8284271247 3.2659863237 10.8094010768   0 0 0
Pt 5.6568542495 3.2659863237 10.8094010768   0 0 0
Pt 8.4852813742 3.2659863237 10.8094010768   0 0 0
Pt 4.2426406871 5.7154760665 10.8094010768   0 0 0
Pt 7.0710678119 5.7154760665 10.8094010768   0 0 0
Pt 9.8994949366 5.7154760665 10.8094010768   0 0 0
Pt 0.0116040511 1.6408904357 13.1120448117  
Pt 2.8159818173 1.6410655655 13.1123052758  
Pt 5.6565303639 1.6360799397 13.0858980615  
Pt 1.4139578977 4.0703763363 13.1113748505  
Pt 4.2411721475 4.0829238596 13.0903105212  
Pt 7.0718820342 4.0828388366 13.0903697633  
Pt 2.8300074640 6.5321676838 13.0859578291  
Pt 5.6564799106 6.5343930708 13.0903641590  
Pt 8.4831747113 6.5321998265 13.0859815613  
Pt -0.0049278164 -0.0000766813 15.4136353276  
Pt 2.8319340629 -0.0000211109 15.4136800281  
Pt 5.6562450420 0.0024490835 15.4119044724  
Pt 1.4132144502 2.4529762108 15.5521385238  
Pt 4.2464762885 2.4494929429 15.4134807507  
Pt 7.0656987815 2.4493697184 15.4134156214  
Pt 2.8280831684 4.9068288699 15.4133008288  
Pt 5.6561082891 4.9015081695 15.4107949343  
Pt 8.4843267914 4.9068819949 15.4132870469  
H 1.4087987320 2.4685467238 17.1081634564  

