&CONTROL
   tprnfor          = .true.
   pseudo_dir       = '/users/kbadger1/espresso/pseudo/pslibrary.1.0.0/pbe/PSEUDOPOTENTIALS/'
/
&SYSTEM
   ecutwfc          = 40
   ecutrho          = 410
   nosym            = .true.
   occupations      = 'smearing'
   degauss          = 0.02
   smearing         = 'marzari-vanderbilt'
   nspin            = 1
   input_dft        = 'beef-vdw'
   ntyp             = 2
   nat              = 37
   ibrav            = 0
/
&ELECTRONS
   mixing_mode      = 'local-TF'
/
&IONS
/
&CELL
/
&FCP
/
&RISM
/
ATOMIC_SPECIES
Pt 195.084 Pt.pbe-n-kjpaw_psl.1.0.0.UPF
H 1.008 H.pbe-kjpaw_psl.1.0.0.UPF

K_POINTS automatic
5 5 1  0 0 0

CELL_PARAMETERS angstrom
8.46831000000000 0.00000000000000 0.00000000000000
4.23415500000000 7.33377158712180 0.00000000000000
0.00000000000000 0.00000000000000 24.96566199000000

ATOMIC_POSITIONS angstrom
Pt 0.0000000000 0.0000000000 8.5000000000   0 0 0
Pt 2.8284271247 0.0000000000 8.5000000000   0 0 0
Pt 5.6568542495 0.0000000000 8.5000000000   0 0 0
Pt 1.4142135624 2.4494897428 8.5000000000   0 0 0
Pt 4.2426406871 2.4494897428 8.5000000000   0 0 0
Pt 7.0710678119 2.4494897428 8.5000000000   0 0 0
Pt 2.8284271247 4.8989794856 8.5000000000   0 0 0
Pt 5.6568542495 4.8989794856 8.5000000000   0 0 0
Pt 8.4852813742 4.8989794856 8.5000000000   0 0 0
Pt 1.4142135624 0.8164965809 10.8094010768   0 0 0
Pt 4.2426406871 0.8164965809 10.8094010768   0 0 0
Pt 7.0710678119 0.8164965809 10.8094010768   0 0 0
Pt 2.8284271247 3.2659863237 10.8094010768   0 0 0
Pt 5.6568542495 3.2659863237 10.8094010768   0 0 0
Pt 8.4852813742 3.2659863237 10.8094010768   0 0 0
Pt 4.2426406871 5.7154760665 10.8094010768   0 0 0
Pt 7.0710678119 5.7154760665 10.8094010768   0 0 0
Pt 9.8994949366 5.7154760665 10.8094010768   0 0 0
Pt 0.0236899551 1.6453188909 13.1187569755  
Pt 2.8232697548 1.6444456684 13.1159697079  
Pt 5.6577987956 1.6395656125 13.0892113870  
Pt 1.4242943266 4.0715448053 13.1169185480  
Pt 4.2451542731 4.0819715949 13.0936736303  
Pt 7.0705170663 4.0821657782 13.0930190773  
Pt 2.8378378139 6.5276785766 13.0955188994  
Pt 5.6582818474 6.5282704760 13.0975332230  
Pt 8.4806677886 6.5268774190 13.0922147519  
Pt 0.0097681952 0.0087782801 15.4251687364  
Pt 2.8402114874 0.0090815321 15.4233525538  
Pt 5.6585312483 0.0117743388 15.4224261661  
Pt 1.4247950099 2.4570583045 15.5607642699  
Pt 4.2519387361 2.4531457280 15.4205936993  
Pt 7.0655627422 2.4532396498 15.4212432025  
Pt 2.8369816581 4.9048447800 15.4227709682  
Pt 5.6588894511 4.9001253776 15.4202966010  
Pt 8.4808575745 4.9051862002 15.4217394209  
H 1.4261862692 2.4765100863 17.1166490170  

