&CONTROL
   tprnfor          = .true.
   pseudo_dir       = '/users/kbadger1/espresso/pseudo/pslibrary.1.0.0/pbe/PSEUDOPOTENTIALS/'
/
&SYSTEM
   ecutwfc          = 40
   ecutrho          = 410
   nosym            = .true.
   occupations      = 'smearing'
   degauss          = 0.001
   smearing         = 'marzari-vanderbilt'
   nspin            = 1
   input_dft        = 'beef-vdw'
   ntyp             = 4
   nat              = 41
   ibrav            = 0
/
&ELECTRONS
   mixing_mode      = 'local-TF'
/
&IONS
/
&CELL
/
&FCP
/
&RISM
/
ATOMIC_SPECIES
Pt 195.084 Pt.pbe-n-kjpaw_psl.1.0.0.UPF
O 15.999 O.pbe-nl-kjpaw_psl.1.0.0.UPF
H 1.008 H.pbe-kjpaw_psl.1.0.0.UPF
C 12.011 C.pbe-n-kjpaw_psl.1.0.0.UPF

K_POINTS automatic
5 5 1  0 0 0

CELL_PARAMETERS angstrom
8.48528137423857 0.00000000000000 0.00000000000000
4.24264068711929 7.34846922834953 0.00000000000000
0.00000000000000 0.00000000000000 23.92820323027551

ATOMIC_POSITIONS angstrom
Pt 0.0000000000 0.0000000000 8.5000000000   0 0 0
Pt 2.8284271247 0.0000000000 8.5000000000   0 0 0
Pt 5.6568542495 0.0000000000 8.5000000000   0 0 0
Pt 1.4142135624 2.4494897428 8.5000000000   0 0 0
Pt 4.2426406871 2.4494897428 8.5000000000   0 0 0
Pt 7.0710678119 2.4494897428 8.5000000000   0 0 0
Pt 2.8284271247 4.8989794856 8.5000000000   0 0 0
Pt 5.6568542495 4.8989794856 8.5000000000   0 0 0
Pt 8.4852813742 4.8989794856 8.5000000000   0 0 0
Pt 1.4142135624 0.8164965809 10.8094010768   0 0 0
Pt 4.2426406871 0.8164965809 10.8094010768   0 0 0
Pt 7.0710678119 0.8164965809 10.8094010768   0 0 0
Pt 2.8284271247 3.2659863237 10.8094010768   0 0 0
Pt 5.6568542495 3.2659863237 10.8094010768   0 0 0
Pt 8.4852813742 3.2659863237 10.8094010768   0 0 0
Pt 4.2426406871 5.7154760665 10.8094010768   0 0 0
Pt 7.0710678119 5.7154760665 10.8094010768   0 0 0
Pt 9.8994949366 5.7154760665 10.8094010768   0 0 0
Pt -0.0452073832 1.6901636777 13.0940350784  
Pt 2.7984080935 1.6975766651 13.1197421946  
Pt 5.6094490522 1.6990605601 13.1334096068  
Pt 1.3997612149 4.1604313656 13.1761376662  
Pt 4.2071375870 4.1220563560 13.1476972087  
Pt 7.0128153622 4.1591749324 13.1716574715  
Pt 2.7976844141 6.5825540501 13.0882085569  
Pt 5.6187645796 6.5868560687 13.0845884443  
Pt 8.4512344632 6.5809236052 13.0960463566  
Pt -0.0453455251 0.1373074485 15.4270325874  
Pt 2.7878883293 0.0682878253 15.4094500946  
Pt 5.6066910836 0.0627660314 15.4078338216  
Pt 1.3327098096 2.5066066602 15.4390466614  
Pt 4.2057290166 2.4975260783 15.6063787499  
Pt 7.0430136225 2.5130638644 15.4721785154  
Pt 2.7013955268 4.9347972340 15.5143773291  
Pt 5.6432127797 4.9529181342 15.4991898234  
Pt 8.4152878891 4.9802154471 15.4845354444  
O 4.1529656957 5.6814919836 16.8011744844  
H 4.0390156693 4.1060827757 17.7652389768  
H 5.0482691974 2.6533370129 18.0819927284  
H 3.3155978879 2.2433404334 18.0241078424  
C 4.1064667875 2.8968356535 17.6240778886  

