Pt H 
 1.0000000000000000
     8.4683100000000007    0.0000000000000000    0.0000000000000000
     4.2341550000000012    7.3337715871217997    0.0000000000000000
     0.0000000000000000    0.0000000000000000   24.9656619900000010
 Pt  H  
  36   1
Selective dynamics
Cartesian
  0.0000000000000000  0.0000000000000000  8.5000000000000000   F   F   F
  2.8284271247461903  0.0000000000000000  8.5000000000000000   F   F   F
  5.6568542494923806  0.0000000000000000  8.5000000000000000   F   F   F
  1.4142135623730951  2.4494897427831779  8.5000000000000000   F   F   F
  4.2426406871192857  2.4494897427831779  8.5000000000000000   F   F   F
  7.0710678118654755  2.4494897427831779  8.5000000000000000   F   F   F
  2.8284271247461903  4.8989794855663558  8.5000000000000000   F   F   F
  5.6568542494923806  4.8989794855663558  8.5000000000000000   F   F   F
  8.4852813742385713  4.8989794855663558  8.5000000000000000   F   F   F
  1.4142135623730951  0.8164965809277259 10.8094010767585029   F   F   F
  4.2426406871192848  0.8164965809277259 10.8094010767585029   F   F   F
  7.0710678118654755  0.8164965809277259 10.8094010767585029   F   F   F
  2.8284271247461903  3.2659863237109037 10.8094010767585029   F   F   F
  5.6568542494923806  3.2659863237109037 10.8094010767585029   F   F   F
  8.4852813742385713  3.2659863237109037 10.8094010767585029   F   F   F
  4.2426406871192857  5.7154760664940820 10.8094010767585029   F   F   F
  7.0710678118654755  5.7154760664940820 10.8094010767585029   F   F   F
  9.8994949366116671  5.7154760664940820 10.8094010767585029   F   F   F
  0.0335317552371824  1.6487455933438706 13.1054240362467134   T   T   T
  2.8476436216799459  1.6445377853914265 13.1226372918997800   T   T   T
  5.6749681965908723  1.6441465361695493 13.0865513927283761   T   T   T
  1.4361074847422832  4.0774855336544960 13.1129167043774331   T   T   T
  4.2612623200231701  4.0933052493698971 13.0863866019562991   T   T   T
  7.0848427437168624  4.0911535557919523 13.0910369087416676   T   T   T
  2.8446589673895644  6.5318018440794923 13.0849005001552321   T   T   T
  5.6784610190963098  6.5397530905430292 13.1057018142772410   T   T   T
  8.4832378908073576  6.5395621069687477 13.1129281112809526   T   T   T
  0.0075680604335700  0.0052369940436050 15.4082869634555362   T   T   T
  2.8820222825555915  0.0137439875203736 15.5028854870569894   T   T   T
  5.6880943872640275  0.0246993756602603 15.4223990463111509   T   T   T
  1.4515254672840674  2.4901772316217947 15.5024865064059227   T   T   T
  4.3104007595578118  2.4898070974498450 15.4151685396988949   T   T   T
  7.0972849122028547  2.4697296131322490 15.4195924406733056   T   T   T
  2.8649521660044210  4.9143742216174049 15.4221943576079816   T   T   T
  5.6871701774942878  4.9131614858420614 15.4197358844304198   T   T   T
  8.5088167761652898  4.9133487540978056 15.4263867225185081   T   T   T
  2.1275950667746804  1.2301951645982079 16.5228549733769015   T   T   T
