&CONTROL
   tprnfor          = .true.
   pseudo_dir       = '/users/kbadger1/espresso/pseudo/pslibrary.1.0.0/pbe/PSEUDOPOTENTIALS/'
/
&SYSTEM
   ecutwfc          = 40
   ecutrho          = 410
   nosym            = .true.
   occupations      = 'smearing'
   degauss          = 0.001
   smearing         = 'marzari-vanderbilt'
   nspin            = 1
   input_dft        = 'beef-vdw'
   ntyp             = 3
   nat              = 39
   ibrav            = 0
/
&ELECTRONS
   mixing_mode      = 'local-TF'
/
&IONS
/
&CELL
/
&FCP
/
&RISM
/
ATOMIC_SPECIES
Pt 195.084 Pt.pbe-n-kjpaw_psl.1.0.0.UPF
O 15.999 O.pbe-nl-kjpaw_psl.1.0.0.UPF
H 1.008 H.pbe-kjpaw_psl.1.0.0.UPF

K_POINTS automatic
5 5 1  0 0 0

CELL_PARAMETERS angstrom
8.48528137423857 0.00000000000000 0.00000000000000
4.24264068711929 7.34846922834953 0.00000000000000
0.00000000000000 0.00000000000000 23.92820323027551

ATOMIC_POSITIONS angstrom
Pt 0.0000000000 0.0000000000 8.5000000000   0 0 0
Pt 2.8284271247 0.0000000000 8.5000000000   0 0 0
Pt 5.6568542495 0.0000000000 8.5000000000   0 0 0
Pt 1.4142135624 2.4494897428 8.5000000000   0 0 0
Pt 4.2426406871 2.4494897428 8.5000000000   0 0 0
Pt 7.0710678119 2.4494897428 8.5000000000   0 0 0
Pt 2.8284271247 4.8989794856 8.5000000000   0 0 0
Pt 5.6568542495 4.8989794856 8.5000000000   0 0 0
Pt 8.4852813742 4.8989794856 8.5000000000   0 0 0
Pt 1.4142135624 0.8164965809 10.8094010768   0 0 0
Pt 4.2426406871 0.8164965809 10.8094010768   0 0 0
Pt 7.0710678119 0.8164965809 10.8094010768   0 0 0
Pt 2.8284271247 3.2659863237 10.8094010768   0 0 0
Pt 5.6568542495 3.2659863237 10.8094010768   0 0 0
Pt 8.4852813742 3.2659863237 10.8094010768   0 0 0
Pt 4.2426406871 5.7154760665 10.8094010768   0 0 0
Pt 7.0710678119 5.7154760665 10.8094010768   0 0 0
Pt 9.8994949366 5.7154760665 10.8094010768   0 0 0
Pt -0.0638258728 1.6805475030 13.0864182042  
Pt 2.7636229647 1.6908928465 13.1113334757  
Pt 5.5902899622 1.6789379723 13.1148168553  
Pt 1.3452719053 4.1425391468 13.1079118058  
Pt 4.1624716931 4.1064836294 13.1567472671  
Pt 7.0016958683 4.1383165546 13.0963328438  
Pt 2.7616734893 6.5816845009 13.1028882593  
Pt 5.5776294593 6.5759796077 13.0836911710  
Pt 8.4204852244 6.5898904366 13.1066837996  
Pt -0.1426355918 0.1168837638 15.4407307426  
Pt 2.6684863335 0.0867233802 15.3977887569  
Pt 5.5330549225 0.0843391538 15.4704149688  
Pt 1.2591379042 2.5672363605 15.4239119862  
Pt 4.0926119312 2.6228600129 15.4653285312  
Pt 6.9586734223 2.5676874577 15.4100043415  
Pt 2.6735597172 5.0455061251 15.4660936352  
Pt 5.5298707253 5.0333451235 15.4436168504  
Pt 8.3470846640 5.0134607129 15.4457100991  
O 4.3512097489 1.9140270630 17.5657714699  
H 4.9739860467 2.5765375785 17.9273985617  
H 4.9042933638 1.0615358917 17.1624310285  

