Pt H 
 1.0000000000000000
     8.4683100000000007    0.0000000000000000    0.0000000000000000
     4.2341550000000012    7.3337715871217997    0.0000000000000000
     0.0000000000000000    0.0000000000000000   24.9656619900000010
 Pt  H  
  36   1
Selective dynamics
Cartesian
  0.0000000000000000  0.0000000000000000  8.5000000000000000   F   F   F
  2.8284271247461903  0.0000000000000000  8.5000000000000000   F   F   F
  5.6568542494923806  0.0000000000000000  8.5000000000000000   F   F   F
  1.4142135623730951  2.4494897427831779  8.5000000000000000   F   F   F
  4.2426406871192857  2.4494897427831779  8.5000000000000000   F   F   F
  7.0710678118654755  2.4494897427831779  8.5000000000000000   F   F   F
  2.8284271247461903  4.8989794855663558  8.5000000000000000   F   F   F
  5.6568542494923806  4.8989794855663558  8.5000000000000000   F   F   F
  8.4852813742385713  4.8989794855663558  8.5000000000000000   F   F   F
  1.4142135623730951  0.8164965809277259 10.8094010767585029   F   F   F
  4.2426406871192848  0.8164965809277259 10.8094010767585029   F   F   F
  7.0710678118654755  0.8164965809277259 10.8094010767585029   F   F   F
  2.8284271247461903  3.2659863237109037 10.8094010767585029   F   F   F
  5.6568542494923806  3.2659863237109037 10.8094010767585029   F   F   F
  8.4852813742385713  3.2659863237109037 10.8094010767585029   F   F   F
  4.2426406871192857  5.7154760664940820 10.8094010767585029   F   F   F
  7.0710678118654755  5.7154760664940820 10.8094010767585029   F   F   F
  9.8994949366116671  5.7154760664940820 10.8094010767585029   F   F   F
  0.0256611568231649  1.6441302373289164 13.1070055204297873   T   T   T
  2.8379465192696873  1.6390116539878881 13.1214227622911697   T   T   T
  5.6667008358299427  1.6401158249902090 13.0850905198867977   T   T   T
  1.4291654478089326  4.0740751795763410 13.1116961255125002   T   T   T
  4.2531125337994888  4.0883087088613879 13.0850770299586241   T   T   T
  7.0773630280546946  4.0866676099828174 13.0901358534855472   T   T   T
  2.8376497371993672  6.5284578327753735 13.0876757046301577   T   T   T
  5.6702763302581296  6.5343818133340985 13.1068462469774563   T   T   T
  8.4765478872005495  6.5355570035306432 13.1118424385605703   T   T   T
 -0.0084812736153679 -0.0038370141000530 15.4141134603706629   T   T   T
  2.8711833306724746  0.0025609775662270 15.4993533574822884   T   T   T
  5.6739485019899849  0.0185944079545231 15.4226658060778341   T   T   T
  1.4375923928385004  2.4860846481511949 15.4994175461886403   T   T   T
  4.2907745866251110  2.4784838259195712 15.4125372971596324   T   T   T
  7.0802673091711332  2.4636652036628521 15.4182345250144390   T   T   T
  2.8520036142372849  4.9060334305021840 15.4223584902944282   T   T   T
  5.6729726419110413  4.9015452854735209 15.4183114676853776   T   T   T
  8.4952620090876110  4.9057100854383364 15.4245862264142417   T   T   T
  1.9514233561935055  1.1268848791585118 16.4971317008733784   T   T   T
