Pt H                                    
   1.00000000000000     
     8.4683100000000007    0.0000000000000000    0.0000000000000000
     4.2341550000000012    7.3337715871217997    0.0000000000000000
     0.0000000000000000    0.0000000000000000   24.9656619900000010
  Pt/3ed90460ade  H/030f79b5d3ab
              36               1
Selective dynamics
Direct
  0.0000000000000000  0.0000000000000000  0.3404676392480468   F   F   F
  0.3340013680115845  0.0000000000000000  0.3404676392480468   F   F   F
  0.6680027360231691  0.0000000000000000  0.3404676392480468   F   F   F
  0.0000000000000000  0.3340013680115845  0.3404676392480468   F   F   F
  0.3340013680115845  0.3340013680115845  0.3404676392480468   F   F   F
  0.6680027360231691  0.3340013680115845  0.3404676392480468   F   F   F
  0.0000000000000000  0.6680027360231691  0.3404676392480468   F   F   F
  0.3340013680115845  0.6680027360231691  0.3404676392480468   F   F   F
  0.6680027360231691  0.6680027360231691  0.3404676392480468   F   F   F
  0.1113337893371948  0.1113337893371948  0.4329707372105034   F   F   F
  0.4453351573487794  0.1113337893371948  0.4329707372105034   F   F   F
  0.7793365253603639  0.1113337893371948  0.4329707372105034   F   F   F
  0.1113337893371948  0.4453351573487794  0.4329707372105034   F   F   F
  0.4453351573487794  0.4453351573487794  0.4329707372105034   F   F   F
  0.7793365253603639  0.4453351573487794  0.4329707372105034   F   F   F
  0.1113337893371948  0.7793365253603639  0.4329707372105034   F   F   F
  0.4453351573487794  0.7793365253603639  0.4329707372105034   F   F   F
  0.7793365253603639  0.7793365253603639  0.4329707372105034   F   F   F
  0.8896890128746406  0.2235222480789645  0.5246386058566941   T   T   T
  0.2236635659662909  0.2234264358771014  0.5245846567959589   T   T   T
  0.5567338257496672  0.2232253830097903  0.5241743448032565   T   T   T
  0.8912192840432667  0.5545332047101539  0.5256688540963950   T   T   T
  0.2233433830814562  0.5569681165555878  0.5243281321304210   T   T   T
  0.5564199196147044  0.5570246365907181  0.5242696925314547   T   T   T
  0.8902785713580101  0.8901366010461871  0.5245273890678845   T   T   T
  0.2231851245498007  0.8906152487305334  0.5247276484439354   T   T   T
  0.5568033982555960  0.8899656159916347  0.5243957910791224   T   T   T
  0.0005621222828083  0.9996922570829341  0.6177230220988150   T   T   T
  0.3371388736207379  0.9997244888247039  0.6177127659697845   T   T   T
  0.6676362351320577  0.0020029653160947  0.6178052459355214   T   T   T
  0.0012024588737916  0.3348315760690781  0.6202114051694352   T   T   T
  0.3358425795990385  0.3351314261924045  0.6174586902085224   T   T   T
  0.6662628465724509  0.3350949509813290  0.6173992371199901   T   T   T
  0.0010557864893102  0.6697636172585959  0.6176881262884493   T   T   T
  0.3345918600342017  0.6681204730464287  0.6175543084823119   T   T   T
  0.6664722451265845  0.6698595578922308  0.6176089980316419   T   T   T
  0.0456310000169395  0.2458759686920260  0.6773844184951940   T   T   T
 
  0.00000000E+00  0.00000000E+00  0.00000000E+00
  0.00000000E+00  0.00000000E+00  0.00000000E+00
  0.00000000E+00  0.00000000E+00  0.00000000E+00
  0.00000000E+00  0.00000000E+00  0.00000000E+00
  0.00000000E+00  0.00000000E+00  0.00000000E+00
  0.00000000E+00  0.00000000E+00  0.00000000E+00
  0.00000000E+00  0.00000000E+00  0.00000000E+00
  0.00000000E+00  0.00000000E+00  0.00000000E+00
  0.00000000E+00  0.00000000E+00  0.00000000E+00
  0.00000000E+00  0.00000000E+00  0.00000000E+00
  0.00000000E+00  0.00000000E+00  0.00000000E+00
  0.00000000E+00  0.00000000E+00  0.00000000E+00
  0.00000000E+00  0.00000000E+00  0.00000000E+00
  0.00000000E+00  0.00000000E+00  0.00000000E+00
  0.00000000E+00  0.00000000E+00  0.00000000E+00
  0.00000000E+00  0.00000000E+00  0.00000000E+00
  0.00000000E+00  0.00000000E+00  0.00000000E+00
  0.00000000E+00  0.00000000E+00  0.00000000E+00
  0.00000000E+00  0.00000000E+00  0.00000000E+00
  0.00000000E+00  0.00000000E+00  0.00000000E+00
  0.00000000E+00  0.00000000E+00  0.00000000E+00
  0.00000000E+00  0.00000000E+00  0.00000000E+00
  0.00000000E+00  0.00000000E+00  0.00000000E+00
  0.00000000E+00  0.00000000E+00  0.00000000E+00
  0.00000000E+00  0.00000000E+00  0.00000000E+00
  0.00000000E+00  0.00000000E+00  0.00000000E+00
  0.00000000E+00  0.00000000E+00  0.00000000E+00
  0.00000000E+00  0.00000000E+00  0.00000000E+00
  0.00000000E+00  0.00000000E+00  0.00000000E+00
  0.00000000E+00  0.00000000E+00  0.00000000E+00
  0.00000000E+00  0.00000000E+00  0.00000000E+00
  0.00000000E+00  0.00000000E+00  0.00000000E+00
  0.00000000E+00  0.00000000E+00  0.00000000E+00
  0.00000000E+00  0.00000000E+00  0.00000000E+00
  0.00000000E+00  0.00000000E+00  0.00000000E+00
  0.00000000E+00  0.00000000E+00  0.00000000E+00
  0.00000000E+00  0.00000000E+00  0.00000000E+00
