Pt H 
 1.0000000000000000
     8.4683100000000007    0.0000000000000000    0.0000000000000000
     4.2341550000000012    7.3337715871217997    0.0000000000000000
     0.0000000000000000    0.0000000000000000   24.9656619900000010
 Pt  H  
  36   1
Selective dynamics
Cartesian
  0.0000000000000000  0.0000000000000000  8.5000000000000000   F   F   F
  2.8284271247461903  0.0000000000000000  8.5000000000000000   F   F   F
  5.6568542494923806  0.0000000000000000  8.5000000000000000   F   F   F
  1.4142135623730951  2.4494897427831779  8.5000000000000000   F   F   F
  4.2426406871192857  2.4494897427831779  8.5000000000000000   F   F   F
  7.0710678118654755  2.4494897427831779  8.5000000000000000   F   F   F
  2.8284271247461903  4.8989794855663558  8.5000000000000000   F   F   F
  5.6568542494923806  4.8989794855663558  8.5000000000000000   F   F   F
  8.4852813742385713  4.8989794855663558  8.5000000000000000   F   F   F
  1.4142135623730951  0.8164965809277259 10.8094010767585029   F   F   F
  4.2426406871192848  0.8164965809277259 10.8094010767585029   F   F   F
  7.0710678118654755  0.8164965809277259 10.8094010767585029   F   F   F
  2.8284271247461903  3.2659863237109037 10.8094010767585029   F   F   F
  5.6568542494923806  3.2659863237109037 10.8094010767585029   F   F   F
  8.4852813742385713  3.2659863237109037 10.8094010767585029   F   F   F
  4.2426406871192857  5.7154760664940820 10.8094010767585029   F   F   F
  7.0710678118654755  5.7154760664940820 10.8094010767585029   F   F   F
  9.8994949366116671  5.7154760664940820 10.8094010767585029   F   F   F
  0.0122802089312676  1.6392611120511096 13.0979501007231232   T   T   T
  2.8400745729091916  1.6385584472473753 13.0966032267080319   T   T   T
  5.6597654955320058  1.6370839714415781 13.0863595161877662   T   T   T
  1.4267907166459715  4.0668198608189021 13.1236709300411700   T   T   T
  4.2496303399369761  4.0846769481281102 13.0901989186162240   T   T   T
  7.0704650196161722  4.0850914531558455 13.0887399353416036   T   T   T
  2.8398212686194868  6.5280585134097118 13.0951734999660960   T   T   T
  5.6610038305649457  6.5315688061973871 13.1001731078588470   T   T   T
  8.4834361482609051  6.5268045480747849 13.0918880690600741   T   T   T
  0.0034571945377097 -0.0022569162613121 15.4218641731602926   T   T   T
  2.8538299378507976 -0.0020205360293058 15.4216081221096353   T   T   T
  5.6622314719391227  0.0146892901251608 15.4239169456749856   T   T   T
  1.4279115864762610  2.4555782990466226 15.4839883038030148   T   T   T
  4.2630174791140369  2.4577773313614713 15.4152649525340379   T   T   T
  7.0609642884303145  2.4575098304948200 15.4137806668214825   T   T   T
  2.8448236961188766  4.9118933863390231 15.4209929761538458   T   T   T
  5.6623532357981103  4.8998429420022580 15.4176521260375079   T   T   T
  8.4801827744751108  4.9125969930320368 15.4190174868405627   T   T   T
  1.4274944159706326  1.8031981931496379 16.9113504294437540   T   T   T
