&CONTROL
   tprnfor          = .true.
   pseudo_dir       = '/users/kbadger1/espresso/pseudo/pslibrary.1.0.0/pbe/PSEUDOPOTENTIALS/'
/
&SYSTEM
   ecutwfc          = 40
   ecutrho          = 410
   nosym            = .true.
   occupations      = 'smearing'
   degauss          = 0.001
   smearing         = 'marzari-vanderbilt'
   nspin            = 1
   input_dft        = 'beef-vdw'
   ntyp             = 4
   nat              = 41
   ibrav            = 0
/
&ELECTRONS
   mixing_mode      = 'local-TF'
/
&IONS
/
&CELL
/
&FCP
/
&RISM
/
ATOMIC_SPECIES
Pt 195.084 Pt.pbe-n-kjpaw_psl.1.0.0.UPF
O 15.999 O.pbe-nl-kjpaw_psl.1.0.0.UPF
H 1.008 H.pbe-kjpaw_psl.1.0.0.UPF
C 12.011 C.pbe-n-kjpaw_psl.1.0.0.UPF

K_POINTS automatic
5 5 1  0 0 0

CELL_PARAMETERS angstrom
8.48528137423857 0.00000000000000 0.00000000000000
4.24264068711929 7.34846922834953 0.00000000000000
0.00000000000000 0.00000000000000 23.92820323027551

ATOMIC_POSITIONS angstrom
Pt 0.0000000000 0.0000000000 8.5000000000   0 0 0
Pt 2.8284271247 0.0000000000 8.5000000000   0 0 0
Pt 5.6568542495 0.0000000000 8.5000000000   0 0 0
Pt 1.4142135624 2.4494897428 8.5000000000   0 0 0
Pt 4.2426406871 2.4494897428 8.5000000000   0 0 0
Pt 7.0710678119 2.4494897428 8.5000000000   0 0 0
Pt 2.8284271247 4.8989794856 8.5000000000   0 0 0
Pt 5.6568542495 4.8989794856 8.5000000000   0 0 0
Pt 8.4852813742 4.8989794856 8.5000000000   0 0 0
Pt 1.4142135624 0.8164965809 10.8094010768   0 0 0
Pt 4.2426406871 0.8164965809 10.8094010768   0 0 0
Pt 7.0710678119 0.8164965809 10.8094010768   0 0 0
Pt 2.8284271247 3.2659863237 10.8094010768   0 0 0
Pt 5.6568542495 3.2659863237 10.8094010768   0 0 0
Pt 8.4852813742 3.2659863237 10.8094010768   0 0 0
Pt 4.2426406871 5.7154760665 10.8094010768   0 0 0
Pt 7.0710678119 5.7154760665 10.8094010768   0 0 0
Pt 9.8994949366 5.7154760665 10.8094010768   0 0 0
Pt -0.0254704802 1.6212632535 13.1291135302  
Pt 2.8209520846 1.6927075691 13.1157367905  
Pt 5.6123357004 1.6962488142 13.1206875057  
Pt 1.4128509508 4.1574943121 13.1337341461  
Pt 4.1978616743 4.1315267195 13.1530270851  
Pt 7.0759075718 4.1070792138 13.0642512344  
Pt 2.7955453557 6.5331394932 13.1706358025  
Pt 5.6294550608 6.5794877213 13.0802913065  
Pt 8.4536358339 6.5718584442 13.0803602501  
Pt -0.0600755823 0.1895973093 15.4522157541  
Pt 2.7799059588 0.1004248377 15.4077205228  
Pt 5.5651379177 0.1084629956 15.3780742304  
Pt 1.3408635393 2.5821850863 15.3688542546  
Pt 4.2240606620 2.5326014921 15.6021417972  
Pt 7.0139949084 2.5823741184 15.4414772179  
Pt 2.7220255409 4.8895117467 15.9326956062  
Pt 5.6771865913 4.9921297667 15.3305971666  
Pt 8.4259861333 5.0111054933 15.4453085639  
O 3.7263664724 6.4699169646 17.2363933001  
H 3.0022470574 6.9673411026 17.6552950626  
H 4.2739136736 3.9782465631 17.8495081480  
H 2.7772491338 2.9400725576 17.8073444651  
C 3.5120265444 3.5018697787 17.2299589900  

