&CONTROL
   tprnfor          = .true.
   pseudo_dir       = '/users/kbadger1/espresso/pseudo/pslibrary.1.0.0/pbe/PSEUDOPOTENTIALS/'
/
&SYSTEM
   ecutwfc          = 40
   ecutrho          = 410
   nosym            = .true.
   occupations      = 'smearing'
   degauss          = 0.02
   smearing         = 'marzari-vanderbilt'
   nspin            = 1
   input_dft        = 'beef-vdw'
   ntyp             = 2
   nat              = 37
   ibrav            = 0
/
&ELECTRONS
   mixing_mode      = 'local-TF'
/
&IONS
/
&CELL
/
&FCP
/
&RISM
/
ATOMIC_SPECIES
Pt 195.084 Pt.pbe-n-kjpaw_psl.1.0.0.UPF
H 1.008 H.pbe-kjpaw_psl.1.0.0.UPF

K_POINTS automatic
5 5 1  0 0 0

CELL_PARAMETERS angstrom
8.46831000000000 0.00000000000000 0.00000000000000
4.23415500000000 7.33377158712180 0.00000000000000
0.00000000000000 0.00000000000000 24.96566199000000

ATOMIC_POSITIONS angstrom
Pt 0.0000000000 0.0000000000 8.5000000000   0 0 0
Pt 2.8284271247 0.0000000000 8.5000000000   0 0 0
Pt 5.6568542495 0.0000000000 8.5000000000   0 0 0
Pt 1.4142135624 2.4494897428 8.5000000000   0 0 0
Pt 4.2426406871 2.4494897428 8.5000000000   0 0 0
Pt 7.0710678119 2.4494897428 8.5000000000   0 0 0
Pt 2.8284271247 4.8989794856 8.5000000000   0 0 0
Pt 5.6568542495 4.8989794856 8.5000000000   0 0 0
Pt 8.4852813742 4.8989794856 8.5000000000   0 0 0
Pt 1.4142135624 0.8164965809 10.8094010768   0 0 0
Pt 4.2426406871 0.8164965809 10.8094010768   0 0 0
Pt 7.0710678119 0.8164965809 10.8094010768   0 0 0
Pt 2.8284271247 3.2659863237 10.8094010768   0 0 0
Pt 5.6568542495 3.2659863237 10.8094010768   0 0 0
Pt 8.4852813742 3.2659863237 10.8094010768   0 0 0
Pt 4.2426406871 5.7154760665 10.8094010768   0 0 0
Pt 7.0710678119 5.7154760665 10.8094010768   0 0 0
Pt 9.8994949366 5.7154760665 10.8094010768   0 0 0
Pt 0.0259334587 1.6441112167 13.1076085889  
Pt 2.8376567371 1.6388271095 13.1190137950  
Pt 5.6669260991 1.6402511015 13.0906352588  
Pt 1.4290001229 4.0746080848 13.1133569104  
Pt 4.2535684039 4.0882806191 13.0906029108  
Pt 7.0778258286 4.0867894844 13.0927687208  
Pt 2.8390326097 6.5287391094 13.0923889527  
Pt 5.6705201886 6.5348618522 13.1076308529  
Pt 8.4770151142 6.5346840416 13.1134062366  
Pt 0.0049409600 0.0037967761 15.4201982129  
Pt 2.8742226903 0.0100141618 15.5097217879  
Pt 5.6809892022 0.0203146945 15.4288639045  
Pt 1.4449737127 2.4855205533 15.5097825553  
Pt 4.3005504006 2.4839220833 15.4209585833  
Pt 7.0914625677 2.4660026765 15.4270976349  
Pt 2.8573191205 4.9110894411 15.4288384823  
Pt 5.6805239565 4.9096786061 15.4271116071  
Pt 8.5014728825 4.9091671866 15.4310658772  
H 2.1302203407 1.2307449203 16.5351914455  

