&CONTROL
   tprnfor          = .true.
   pseudo_dir       = '/users/kbadger1/espresso/pseudo/pslibrary.1.0.0/pbe/PSEUDOPOTENTIALS/'
/
&SYSTEM
   ecutwfc          = 40
   ecutrho          = 410
   nosym            = .true.
   occupations      = 'smearing'
   degauss          = 0.02
   smearing         = 'marzari-vanderbilt'
   nspin            = 1
   input_dft        = 'beef-vdw'
   ntyp             = 3
   nat              = 38
   ibrav            = 0
/
&ELECTRONS
   mixing_mode      = 'local-TF'
/
&IONS
/
&CELL
/
&FCP
/
&RISM
/
ATOMIC_SPECIES
Pt 195.084 Pt.pbe-n-kjpaw_psl.1.0.0.UPF
H 1.008 H.pbe-kjpaw_psl.1.0.0.UPF
C 12.011 C.pbe-n-kjpaw_psl.1.0.0.UPF

K_POINTS automatic
5 5 1  0 0 0

CELL_PARAMETERS angstrom
8.46831000000000 0.00000000000000 0.00000000000000
4.23415500000000 7.33377158712180 0.00000000000000
0.00000000000000 0.00000000000000 24.96566199000000

ATOMIC_POSITIONS angstrom
Pt 0.0000000000 0.0000000000 8.5000000000   0 0 0
Pt 2.8284271247 0.0000000000 8.5000000000   0 0 0
Pt 5.6568542495 0.0000000000 8.5000000000   0 0 0
Pt 1.4142135624 2.4494897428 8.5000000000   0 0 0
Pt 4.2426406871 2.4494897428 8.5000000000   0 0 0
Pt 7.0710678119 2.4494897428 8.5000000000   0 0 0
Pt 2.8284271247 4.8989794856 8.5000000000   0 0 0
Pt 5.6568542495 4.8989794856 8.5000000000   0 0 0
Pt 8.4852813742 4.8989794856 8.5000000000   0 0 0
Pt 1.4142135624 0.8164965809 10.8094010768   0 0 0
Pt 4.2426406871 0.8164965809 10.8094010768   0 0 0
Pt 7.0710678119 0.8164965809 10.8094010768   0 0 0
Pt 2.8284271247 3.2659863237 10.8094010768   0 0 0
Pt 5.6568542495 3.2659863237 10.8094010768   0 0 0
Pt 8.4852813742 3.2659863237 10.8094010768   0 0 0
Pt 4.2426406871 5.7154760665 10.8094010768   0 0 0
Pt 7.0710678119 5.7154760665 10.8094010768   0 0 0
Pt 9.8994949366 5.7154760665 10.8094010768   0 0 0
Pt 0.0229088900 1.6571753344 13.1299867803  
Pt 2.8247229994 1.6562485012 13.1273197097  
Pt 5.6581838926 1.6587730901 13.0856299171  
Pt 1.4245197120 4.0821834223 13.1508138592  
Pt 4.2419158641 4.1046432923 13.0851312130  
Pt 7.0746413287 4.1047817400 13.0843945169  
Pt 2.8501025924 6.5615075713 13.1254195050  
Pt 5.6585730900 6.5569947564 13.1161467248  
Pt 8.4686816845 6.5603777004 13.1221955397  
Pt -0.0718579680 0.0271609790 15.5512884343  
Pt 2.9222231431 0.0273598363 15.5486897571  
Pt 5.6590763235 0.0727696497 15.4428532773  
Pt 1.4251697695 2.6532954643 15.6139897313  
Pt 4.2779045100 2.5296038369 15.4089749511  
Pt 7.0407146618 2.5298411772 15.4096052918  
Pt 2.8476850773 4.9780063775 15.4392902985  
Pt 5.6595329120 4.9230675837 15.4048554718  
Pt 8.4709157093 4.9782493494 15.4382645323  
H 1.4264332995 2.2339539934 17.1939168604  
C 1.4259700391 0.8230660134 16.4321799988  

