&CONTROL
   tprnfor          = .true.
   pseudo_dir       = '/users/kbadger1/espresso/pseudo/pslibrary.1.0.0/pbe/PSEUDOPOTENTIALS/'
/
&SYSTEM
   ecutwfc          = 40
   ecutrho          = 410
   nosym            = .true.
   occupations      = 'smearing'
   degauss          = 0.001
   smearing         = 'marzari-vanderbilt'
   nspin            = 1
   input_dft        = 'beef-vdw'
   ntyp             = 3
   nat              = 39
   ibrav            = 0
/
&ELECTRONS
   conv_thr         = 1e-08
   mixing_mode      = 'local-TF'
/
&IONS
/
&CELL
/
&FCP
/
&RISM
/
ATOMIC_SPECIES
Pt 195.084 Pt.pbe-n-kjpaw_psl.1.0.0.UPF
O 15.999 O.pbe-nl-kjpaw_psl.1.0.0.UPF
H 1.008 H.pbe-kjpaw_psl.1.0.0.UPF

K_POINTS automatic
5 5 1  0 0 0

CELL_PARAMETERS angstrom
8.48528137423857 0.00000000000000 0.00000000000000
4.24264068711929 7.34846922834953 0.00000000000000
0.00000000000000 0.00000000000000 23.92820323027551

ATOMIC_POSITIONS angstrom
Pt 0.0000000000 0.0000000000 8.5000000000   0 0 0
Pt 2.8284271247 0.0000000000 8.5000000000   0 0 0
Pt 5.6568542495 0.0000000000 8.5000000000   0 0 0
Pt 1.4142135624 2.4494897428 8.5000000000   0 0 0
Pt 4.2426406871 2.4494897428 8.5000000000   0 0 0
Pt 7.0710678119 2.4494897428 8.5000000000   0 0 0
Pt 2.8284271247 4.8989794856 8.5000000000   0 0 0
Pt 5.6568542495 4.8989794856 8.5000000000   0 0 0
Pt 8.4852813742 4.8989794856 8.5000000000   0 0 0
Pt 1.4142135624 0.8164965809 10.8094010768   0 0 0
Pt 4.2426406871 0.8164965809 10.8094010768   0 0 0
Pt 7.0710678119 0.8164965809 10.8094010768   0 0 0
Pt 2.8284271247 3.2659863237 10.8094010768   0 0 0
Pt 5.6568542495 3.2659863237 10.8094010768   0 0 0
Pt 8.4852813742 3.2659863237 10.8094010768   0 0 0
Pt 4.2426406871 5.7154760665 10.8094010768   0 0 0
Pt 7.0710678119 5.7154760665 10.8094010768   0 0 0
Pt 9.8994949366 5.7154760665 10.8094010768   0 0 0
Pt -0.0643410879 1.6839506502 13.0872925169  
Pt 2.7700163735 1.7025549169 13.1347586910  
Pt 5.5828851586 1.6904988947 13.1246742652  
Pt 1.3426375761 4.1422862553 13.1062912921  
Pt 4.1617606725 4.1157603490 13.1592222395  
Pt 7.0032233815 4.1429272315 13.0956714770  
Pt 2.7465405679 6.5933482265 13.1199734865  
Pt 5.5785795218 6.5825465627 13.0833880185  
Pt 8.4209695326 6.5969392034 13.1139720664  
Pt -0.1369635684 0.1156304637 15.4379113176  
Pt 2.6653516797 0.0935344199 15.4057675942  
Pt 5.5264951315 0.1050745300 15.5190835268  
Pt 1.2564255370 2.5679910247 15.4259638435  
Pt 4.1049874950 2.5907952254 15.5622843076  
Pt 6.9542712780 2.5711559662 15.4102630091  
Pt 2.6795374280 5.0348696994 15.4523961530  
Pt 5.5260206482 5.0290994927 15.4339485522  
Pt 8.3444708511 5.0147532406 15.4405018398  
O 4.1338536774 2.2847881903 17.5769713314  
H 4.9431098790 2.7044951742 17.9149095091  
H 5.1867671624 0.5148321574 16.9893399674  

