&CONTROL
   tprnfor          = .true.
   pseudo_dir       = '/users/kbadger1/espresso/pseudo/pslibrary.1.0.0/pbe/PSEUDOPOTENTIALS/'
/
&SYSTEM
   ecutwfc          = 40
   ecutrho          = 300
   nosym            = .true.
   occupations      = 'smearing'
   degauss          = 0.001
   smearing         = 'marzari-vanderbilt'
   nspin            = 2
   input_dft        = 'beef-vdw'
   starting_magnetization(1) = 1.7
   starting_magnetization(2) = 1.0
   starting_magnetization(3) = 0.0
   starting_magnetization(4) = 0.0
   ntyp             = 4
   nat              = 39
   ibrav            = 0
/
&ELECTRONS
   mixing_mode      = 'local-TF'
/
&IONS
/
&CELL
/
&FCP
/
&RISM
/
ATOMIC_SPECIES
Co  58.93319429 Co.pbe-n-kjpaw_psl.1.0.0.UPF
C  12.0 C.pbe-n-kjpaw_psl.1.0.0.UPF
O  15.99491461957 O.pbe-nl-kjpaw_psl.1.0.0.UPF
H  1.00782503223 H.pbe-kjpaw_psl.1.0.0.UPF

K_POINTS automatic
5 5 1  0 0 0

CELL_PARAMETERS angstrom
7.50000000000000 0.00000000000000 0.00000000000000
3.75000000000000 6.49519052838329 0.00000000000000
0.00000000000000 0.00000000000000 26.08250000000000

ATOMIC_POSITIONS angstrom
Co  0.0000000000 1.4433756730 10.0000000000   0 0 0
Co  2.5000000000 1.4433756730 10.0000000000   0 0 0
Co  5.0000000000 1.4433756730 10.0000000000   0 0 0
Co  1.2500000000 3.6084391824 10.0000000000   0 0 0
Co  3.7500000000 3.6084391824 10.0000000000   0 0 0
Co  6.2500000000 3.6084391824 10.0000000000   0 0 0
Co  2.5000000000 5.7735026919 10.0000000000   0 0 0
Co  5.0000000000 5.7735026919 10.0000000000   0 0 0
Co  7.5000000000 5.7735026919 10.0000000000   0 0 0
Co  0.0000000000 0.0000000000 12.0275000000   0 0 0
Co  2.5000000000 0.0000000000 12.0275000000   0 0 0
Co  5.0000000000 0.0000000000 12.0275000000   0 0 0
Co  1.2500000000 2.1650635095 12.0275000000   0 0 0
Co  3.7500000000 2.1650635095 12.0275000000   0 0 0
Co  6.2500000000 2.1650635095 12.0275000000   0 0 0
Co  2.5000000000 4.3301270189 12.0275000000   0 0 0
Co  5.0000000000 4.3301270189 12.0275000000   0 0 0
Co  7.5000000000 4.3301270189 12.0275000000   0 0 0
Co  0.0000000000 1.4433756730 14.0550000000   0 0 0
Co  2.5000000000 1.4433756730 14.0550000000   0 0 0
Co  5.0000000000 1.4433756730 14.0550000000   0 0 0
Co  1.2500000000 3.6084391824 14.0550000000   0 0 0
Co  3.7500000000 3.6084391824 14.0550000000   0 0 0
Co  6.2500000000 3.6084391824 14.0550000000   0 0 0
Co  2.5000000000 5.7735026919 14.0550000000   0 0 0
Co  5.0000000000 5.7735026919 14.0550000000   0 0 0
Co  7.5000000000 5.7735026919 14.0550000000   0 0 0
Co  0.0000000000 0.0000000000 16.0825000000   0 0 0
Co  2.5000000000 0.0000000000 16.0825000000   0 0 0
Co  5.0000000000 0.0000000000 16.0825000000   0 0 0
Co  1.2500000000 2.1650635095 16.0825000000   0 0 0
Co  3.7500000000 2.1650635095 16.0825000000   0 0 0
Co  6.2500000000 2.1650635095 16.0825000000   0 0 0
Co  2.5000000000 4.3301270189 16.0825000000   0 0 0
Co  5.0000000000 4.3301270189 16.0825000000   0 0 0
Co  7.5000000000 4.3301270189 16.0825000000   0 0 0
C  2.6010872605 1.4177709339 17.4487077082  
O  2.4989770698 1.3976053856 18.6377597743  
H  4.6315033454 3.0696302760 17.1379046704  

