&CONTROL
   tprnfor          = .true.
   pseudo_dir       = '/users/kbadger1/espresso/pseudo/pslibrary.1.0.0/pbe/PSEUDOPOTENTIALS/'
/
&SYSTEM
   ecutwfc          = 40
   ecutrho          = 410
   nosym            = .true.
   occupations      = 'smearing'
   degauss          = 0.02
   smearing         = 'marzari-vanderbilt'
   nspin            = 1
   input_dft        = 'beef-vdw'
   ntyp             = 3
   nat              = 38
   ibrav            = 0
/
&ELECTRONS
   conv_thr         = 1e-08
   mixing_mode      = 'local-TF'
/
&IONS
/
&CELL
/
&FCP
/
&RISM
/
ATOMIC_SPECIES
Pt 195.084 Pt.pbe-n-kjpaw_psl.1.0.0.UPF
C 12.011 C.pbe-n-kjpaw_psl.1.0.0.UPF
H 1.008 H.pbe-kjpaw_psl.1.0.0.UPF

K_POINTS automatic
5 5 1  0 0 0

CELL_PARAMETERS angstrom
8.48528137423857 0.00000000000000 0.00000000000000
4.24264068711929 7.34846922834953 0.00000000000000
0.00000000000000 0.00000000000000 23.92820323027551

ATOMIC_POSITIONS angstrom
Pt 0.0000000000 0.0000000000 8.5000000000   0 0 0
Pt 2.8284271247 0.0000000000 8.5000000000   0 0 0
Pt 5.6568542495 0.0000000000 8.5000000000   0 0 0
Pt 1.4142135624 2.4494897428 8.5000000000   0 0 0
Pt 4.2426406871 2.4494897428 8.5000000000   0 0 0
Pt 7.0710678119 2.4494897428 8.5000000000   0 0 0
Pt 2.8284271247 4.8989794856 8.5000000000   0 0 0
Pt 5.6568542495 4.8989794856 8.5000000000   0 0 0
Pt 8.4852813742 4.8989794856 8.5000000000   0 0 0
Pt 1.4142135624 0.8164965809 10.8094010768   0 0 0
Pt 4.2426406871 0.8164965809 10.8094010768   0 0 0
Pt 7.0710678119 0.8164965809 10.8094010768   0 0 0
Pt 2.8284271247 3.2659863237 10.8094010768   0 0 0
Pt 5.6568542495 3.2659863237 10.8094010768   0 0 0
Pt 8.4852813742 3.2659863237 10.8094010768   0 0 0
Pt 4.2426406871 5.7154760665 10.8094010768   0 0 0
Pt 7.0710678119 5.7154760665 10.8094010768   0 0 0
Pt 9.8994949366 5.7154760665 10.8094010768   0 0 0
Pt 0.0065203735 1.6493106716 13.1076726112  
Pt 2.8238287756 1.6493070818 13.1076854236  
Pt 5.6577642562 1.6523340988 13.0806641990  
Pt 1.4151317078 4.1133112947 13.0900474765  
Pt 4.2397968087 4.1060200071 13.0830769241  
Pt 7.0757440581 4.1060296923 13.0830452748  
Pt 2.8447805303 6.5676882134 13.1125212960  
Pt 5.6578249388 6.5630622143 13.1136869418  
Pt 8.4707709878 6.5677209798 13.1126553622  
Pt -0.0495224432 0.0391696117 15.5517975641  
Pt 2.8817281708 0.0390780224 15.5521883841  
Pt 5.6587328129 0.0603238614 15.4245236079  
Pt 1.4161623216 2.6686137274 15.4342169283  
Pt 4.2751712820 2.5222307141 15.4003755545  
Pt 7.0423432749 2.5222687864 15.4002703734  
Pt 2.8459233944 4.9845516283 15.4282187653  
Pt 5.6587875589 4.9247023727 15.4033550208  
Pt 8.4717165225 4.9845421730 15.4281696345  
C 1.4159804394 0.9655478337 16.4989250714  
H 1.4162359512 1.7754991411 17.2968696759  

