&CONTROL
   tprnfor          = .true.
   pseudo_dir       = '/users/kbadger1/espresso/pseudo/pslibrary.1.0.0/pbe/PSEUDOPOTENTIALS/'
/
&SYSTEM
   ecutwfc          = 40
   ecutrho          = 410
   nosym            = .true.
   occupations      = 'smearing'
   degauss          = 0.001
   smearing         = 'marzari-vanderbilt'
   nspin            = 1
   input_dft        = 'beef-vdw'
   ntyp             = 3
   nat              = 39
   ibrav            = 0
/
&ELECTRONS
   mixing_mode      = 'local-TF'
/
&IONS
/
&CELL
/
&FCP
/
&RISM
/
ATOMIC_SPECIES
Pt 195.084 Pt.pbe-n-kjpaw_psl.1.0.0.UPF
C 12.011 C.pbe-n-kjpaw_psl.1.0.0.UPF
H 1.008 H.pbe-kjpaw_psl.1.0.0.UPF

K_POINTS automatic
5 5 1  0 0 0

CELL_PARAMETERS angstrom
8.48528137423857 0.00000000000000 0.00000000000000
4.24264068711929 7.34846922834953 0.00000000000000
0.00000000000000 0.00000000000000 23.92820323027551

ATOMIC_POSITIONS angstrom
Pt 0.0000000000 0.0000000000 8.5000000000   0 0 0
Pt 2.8284271247 0.0000000000 8.5000000000   0 0 0
Pt 5.6568542495 0.0000000000 8.5000000000   0 0 0
Pt 1.4142135624 2.4494897428 8.5000000000   0 0 0
Pt 4.2426406871 2.4494897428 8.5000000000   0 0 0
Pt 7.0710678119 2.4494897428 8.5000000000   0 0 0
Pt 2.8284271247 4.8989794856 8.5000000000   0 0 0
Pt 5.6568542495 4.8989794856 8.5000000000   0 0 0
Pt 8.4852813742 4.8989794856 8.5000000000   0 0 0
Pt 1.4142135624 0.8164965809 10.8094010768   0 0 0
Pt 4.2426406871 0.8164965809 10.8094010768   0 0 0
Pt 7.0710678119 0.8164965809 10.8094010768   0 0 0
Pt 2.8284271247 3.2659863237 10.8094010768   0 0 0
Pt 5.6568542495 3.2659863237 10.8094010768   0 0 0
Pt 8.4852813742 3.2659863237 10.8094010768   0 0 0
Pt 4.2426406871 5.7154760665 10.8094010768   0 0 0
Pt 7.0710678119 5.7154760665 10.8094010768   0 0 0
Pt 9.8994949366 5.7154760665 10.8094010768   0 0 0
Pt 0.0349124752 1.6194329965 13.1720474194  
Pt 2.7926532479 1.6193649939 13.1719628513  
Pt 5.6565740749 1.6425183817 13.0577544494  
Pt 1.4137630954 4.0385758101 13.1564341072  
Pt 4.2165050677 4.0770040660 13.1040979134  
Pt 7.0965226651 4.0769846219 13.1040378323  
Pt 2.8386158798 6.5224828917 13.1187065795  
Pt 5.6565040889 6.5310951239 13.1216920086  
Pt 8.4744474140 6.5223655242 13.1187037705  
Pt -0.1178032367 -0.0935352221 15.5179411938  
Pt 2.9450199377 -0.0933782229 15.5178228484  
Pt 5.6562695412 0.0410181161 15.3822586015  
Pt 1.4127939058 2.5156193179 16.0956146485  
Pt 4.2686464957 2.4159320856 15.3973927234  
Pt 7.0436077890 2.4159159422 15.3974234162  
Pt 2.8912988370 4.8799660416 15.5247826691  
Pt 5.6562129360 4.8198473121 15.3787795348  
Pt 8.4209586864 4.8800690060 15.5249289162  
C 1.4136511058 0.5598502162 16.3668194929  
H 1.4122842391 2.4662088408 17.6536564898  
C 1.4135559149 4.5957674261 16.6669518270  

