&CONTROL
   tprnfor          = .true.
   pseudo_dir       = '/users/kbadger1/espresso/pseudo/pslibrary.1.0.0/pbe/PSEUDOPOTENTIALS/'
/
&SYSTEM
   ecutwfc          = 40
   ecutrho          = 410
   nosym            = .true.
   occupations      = 'smearing'
   degauss          = 0.02
   smearing         = 'marzari-vanderbilt'
   nspin            = 1
   input_dft        = 'beef-vdw'
   ntyp             = 2
   nat              = 37
   ibrav            = 0
/
&ELECTRONS
   mixing_mode      = 'local-TF'
/
&IONS
/
&CELL
/
&FCP
/
&RISM
/
ATOMIC_SPECIES
Pt 195.084 Pt.pbe-n-kjpaw_psl.1.0.0.UPF
H 1.008 H.pbe-kjpaw_psl.1.0.0.UPF

K_POINTS automatic
5 5 1  0 0 0

CELL_PARAMETERS angstrom
8.48528137423857 0.00000000000000 0.00000000000000
4.24264068711929 7.34846922834953 0.00000000000000
0.00000000000000 0.00000000000000 23.92820323027551

ATOMIC_POSITIONS angstrom
Pt 0.0000000000 0.0000000000 8.5000000000   0 0 0
Pt 2.8284271247 0.0000000000 8.5000000000   0 0 0
Pt 5.6568542495 0.0000000000 8.5000000000   0 0 0
Pt 1.4142135624 2.4494897428 8.5000000000   0 0 0
Pt 4.2426406871 2.4494897428 8.5000000000   0 0 0
Pt 7.0710678119 2.4494897428 8.5000000000   0 0 0
Pt 2.8284271247 4.8989794856 8.5000000000   0 0 0
Pt 5.6568542495 4.8989794856 8.5000000000   0 0 0
Pt 8.4852813742 4.8989794856 8.5000000000   0 0 0
Pt 1.4142135624 0.8164965809 10.8094010768   0 0 0
Pt 4.2426406871 0.8164965809 10.8094010768   0 0 0
Pt 7.0710678119 0.8164965809 10.8094010768   0 0 0
Pt 2.8284271247 3.2659863237 10.8094010768   0 0 0
Pt 5.6568542495 3.2659863237 10.8094010768   0 0 0
Pt 8.4852813742 3.2659863237 10.8094010768   0 0 0
Pt 4.2426406871 5.7154760665 10.8094010768   0 0 0
Pt 7.0710678119 5.7154760665 10.8094010768   0 0 0
Pt 9.8994949366 5.7154760665 10.8094010768   0 0 0
Pt 0.0021726286 1.6147259875 13.0972121110  
Pt 2.8261072256 1.6148566568 13.0973308571  
Pt 5.6567671738 1.6150920431 13.0868718208  
Pt 1.4142713086 4.0342951414 13.1285872953  
Pt 4.2416412542 4.0644405874 13.0896700612  
Pt 7.0720568784 4.0644459823 13.0896940380  
Pt 2.8263193592 6.5066587666 13.0860073045  
Pt 5.6568389393 6.5150276915 13.0894571285  
Pt 8.4874311166 6.5066563072 13.0858800747  
Pt -0.0170398283 -0.0557067261 15.4087529971  
Pt 2.8453080180 -0.0555321952 15.4084351352  
Pt 5.6567335310 -0.0402466125 15.4148752015  
Pt 1.4136977884 2.3895644755 15.5169947692  
Pt 4.2485301173 2.4097202049 15.4110589159  
Pt 7.0646121902 2.4097587193 15.4109098064  
Pt 2.8274408551 4.8588753547 15.4190901779  
Pt 5.6567564635 4.8562511312 15.4119860762  
Pt 8.4861561823 4.8589899672 15.4190327353  
H 1.4077118692 1.7638288113 16.9516467528  

