&CONTROL
   tprnfor          = .true.
   pseudo_dir       = '/users/kbadger1/espresso/pseudo/pslibrary.1.0.0/pbe/PSEUDOPOTENTIALS/'
/
&SYSTEM
   ecutwfc          = 40
   ecutrho          = 410
   nosym            = .true.
   occupations      = 'smearing'
   degauss          = 0.02
   smearing         = 'marzari-vanderbilt'
   nspin            = 1
   input_dft        = 'beef-vdw'
   ntyp             = 2
   nat              = 37
   ibrav            = 0
/
&ELECTRONS
   mixing_mode      = 'local-TF'
/
&IONS
/
&CELL
/
&FCP
/
&RISM
/
ATOMIC_SPECIES
Pt 195.084 Pt.pbe-n-kjpaw_psl.1.0.0.UPF
H 1.008 H.pbe-kjpaw_psl.1.0.0.UPF

K_POINTS automatic
5 5 1  0 0 0

CELL_PARAMETERS angstrom
8.46831000000000 0.00000000000000 0.00000000000000
4.23415500000000 7.33377158712180 0.00000000000000
0.00000000000000 0.00000000000000 24.96566199000000

ATOMIC_POSITIONS angstrom
Pt 0.0000000000 0.0000000000 8.5000000000   0 0 0
Pt 2.8284271247 0.0000000000 8.5000000000   0 0 0
Pt 5.6568542495 0.0000000000 8.5000000000   0 0 0
Pt 1.4142135624 2.4494897428 8.5000000000   0 0 0
Pt 4.2426406871 2.4494897428 8.5000000000   0 0 0
Pt 7.0710678119 2.4494897428 8.5000000000   0 0 0
Pt 2.8284271247 4.8989794856 8.5000000000   0 0 0
Pt 5.6568542495 4.8989794856 8.5000000000   0 0 0
Pt 8.4852813742 4.8989794856 8.5000000000   0 0 0
Pt 1.4142135624 0.8164965809 10.8094010768   0 0 0
Pt 4.2426406871 0.8164965809 10.8094010768   0 0 0
Pt 7.0710678119 0.8164965809 10.8094010768   0 0 0
Pt 2.8284271247 3.2659863237 10.8094010768   0 0 0
Pt 5.6568542495 3.2659863237 10.8094010768   0 0 0
Pt 8.4852813742 3.2659863237 10.8094010768   0 0 0
Pt 4.2426406871 5.7154760665 10.8094010768   0 0 0
Pt 7.0710678119 5.7154760665 10.8094010768   0 0 0
Pt 9.8994949366 5.7154760665 10.8094010768   0 0 0
Pt 0.0147428944 1.6198559149 13.1048828814  
Pt 2.8321218863 1.6188194390 13.1021520697  
Pt 5.6579541220 1.6193059968 13.0906566798  
Pt 1.4243035317 4.0358609128 13.1356075855  
Pt 4.2456980424 4.0642370802 13.0930254108  
Pt 7.0704080761 4.0645071527 13.0922340151  
Pt 2.8350178298 6.5026019367 13.0960192316  
Pt 5.6584885865 6.5089605186 13.0971672495  
Pt 8.4838626550 6.5017109950 13.0926209186  
Pt -0.0020414191 -0.0447974810 15.4222050173  
Pt 2.8527619688 -0.0445788210 15.4202767773  
Pt 5.6589892010 -0.0304619640 15.4270201706  
Pt 1.4252635858 2.3953523026 15.5317886480  
Pt 4.2537800486 2.4148445917 15.4202934334  
Pt 7.0645554714 2.4149317276 15.4208549894  
Pt 2.8366514402 4.8587830181 15.4308223708  
Pt 5.6592830212 4.8543867034 15.4223514965  
Pt 8.4818174484 4.8590884477 15.4297713930  
H 1.4250660325 1.7683020706 16.9652514122  

