&CONTROL
   tprnfor          = .true.
   pseudo_dir       = '/users/kbadger1/espresso/pseudo/pslibrary.1.0.0/pbe/PSEUDOPOTENTIALS/'
/
&SYSTEM
   ecutwfc          = 40
   ecutrho          = 410
   nosym            = .true.
   occupations      = 'smearing'
   degauss          = 0.02
   smearing         = 'marzari-vanderbilt'
   nspin            = 1
   input_dft        = 'beef-vdw'
   ntyp             = 2
   nat              = 37
   ibrav            = 0
/
&ELECTRONS
   conv_thr         = 1e-08
   mixing_mode      = 'local-TF'
/
&IONS
/
&CELL
/
&FCP
/
&RISM
/
ATOMIC_SPECIES
Pt 195.084 Pt.pbe-n-kjpaw_psl.1.0.0.UPF
H 1.008 H.pbe-kjpaw_psl.1.0.0.UPF

K_POINTS automatic
5 5 1  0 0 0

CELL_PARAMETERS angstrom
8.48528137423857 0.00000000000000 0.00000000000000
4.24264068711929 7.34846922834953 0.00000000000000
0.00000000000000 0.00000000000000 23.92820323027551

ATOMIC_POSITIONS angstrom
Pt 0.0000000000 0.0000000000 8.5000000000   0 0 0
Pt 2.8284271247 0.0000000000 8.5000000000   0 0 0
Pt 5.6568542495 0.0000000000 8.5000000000   0 0 0
Pt 1.4142135624 2.4494897428 8.5000000000   0 0 0
Pt 4.2426406871 2.4494897428 8.5000000000   0 0 0
Pt 7.0710678119 2.4494897428 8.5000000000   0 0 0
Pt 2.8284271247 4.8989794856 8.5000000000   0 0 0
Pt 5.6568542495 4.8989794856 8.5000000000   0 0 0
Pt 8.4852813742 4.8989794856 8.5000000000   0 0 0
Pt 1.4142135624 0.8164965809 10.8094010768   0 0 0
Pt 4.2426406871 0.8164965809 10.8094010768   0 0 0
Pt 7.0710678119 0.8164965809 10.8094010768   0 0 0
Pt 2.8284271247 3.2659863237 10.8094010768   0 0 0
Pt 5.6568542495 3.2659863237 10.8094010768   0 0 0
Pt 8.4852813742 3.2659863237 10.8094010768   0 0 0
Pt 4.2426406871 5.7154760665 10.8094010768   0 0 0
Pt 7.0710678119 5.7154760665 10.8094010768   0 0 0
Pt 9.8994949366 5.7154760665 10.8094010768   0 0 0
Pt 0.0045131735 1.6357662964 13.0989077579  
Pt 2.8251688215 1.6313770437 13.1116413399  
Pt 5.6541173473 1.6341169345 13.0937902019  
Pt 1.4129735383 4.0755187057 13.1002414988  
Pt 4.2420418495 4.0798840401 13.0936957800  
Pt 7.0708526746 4.0825425931 13.0910738492  
Pt 2.8270116328 6.5314133406 13.0822093253  
Pt 5.6613042197 6.5348949418 13.0987957195  
Pt 8.4784883363 6.5347628818 13.1001790864  
Pt -0.0144646392 -0.0078643331 15.4110816150  
Pt 2.8389711260 -0.0233563364 15.4859185313  
Pt 5.6665891716 -0.0031276398 15.4168478146  
Pt 1.3987275459 2.4711892549 15.4859096047  
Pt 4.2723020982 2.4671910146 15.4486266798  
Pt 7.0713633946 2.4493109235 15.4209119458  
Pt 2.8301961408 4.9097253406 15.4168594712  
Pt 5.6563732053 4.9001510835 15.4209788306  
Pt 8.4872122187 4.9006911208 15.4214787245  
H 2.5868928571 1.4943095895 16.4007416176  

