&CONTROL
   tprnfor          = .true.
   pseudo_dir       = '/users/kbadger1/espresso/pseudo/pslibrary.1.0.0/pbe/PSEUDOPOTENTIALS/'
/
&SYSTEM
   ecutwfc          = 40
   ecutrho          = 410
   nosym            = .true.
   occupations      = 'smearing'
   degauss          = 0.02
   smearing         = 'marzari-vanderbilt'
   nspin            = 1
   input_dft        = 'beef-vdw'
   ntyp             = 2
   nat              = 37
   ibrav            = 0
/
&ELECTRONS
   mixing_mode      = 'local-TF'
/
&IONS
/
&CELL
/
&FCP
/
&RISM
/
ATOMIC_SPECIES
Pt 195.084 Pt.pbe-n-kjpaw_psl.1.0.0.UPF
H 1.008 H.pbe-kjpaw_psl.1.0.0.UPF

K_POINTS automatic
5 5 1  0 0 0

CELL_PARAMETERS angstrom
8.46831000000000 0.00000000000000 0.00000000000000
4.23415500000000 7.33377158712180 0.00000000000000
0.00000000000000 0.00000000000000 24.96566199000000

ATOMIC_POSITIONS angstrom
Pt 0.0000000000 0.0000000000 8.5000000000   0 0 0
Pt 2.8284271247 0.0000000000 8.5000000000   0 0 0
Pt 5.6568542495 0.0000000000 8.5000000000   0 0 0
Pt 1.4142135624 2.4494897428 8.5000000000   0 0 0
Pt 4.2426406871 2.4494897428 8.5000000000   0 0 0
Pt 7.0710678119 2.4494897428 8.5000000000   0 0 0
Pt 2.8284271247 4.8989794856 8.5000000000   0 0 0
Pt 5.6568542495 4.8989794856 8.5000000000   0 0 0
Pt 8.4852813742 4.8989794856 8.5000000000   0 0 0
Pt 1.4142135624 0.8164965809 10.8094010768   0 0 0
Pt 4.2426406871 0.8164965809 10.8094010768   0 0 0
Pt 7.0710678119 0.8164965809 10.8094010768   0 0 0
Pt 2.8284271247 3.2659863237 10.8094010768   0 0 0
Pt 5.6568542495 3.2659863237 10.8094010768   0 0 0
Pt 8.4852813742 3.2659863237 10.8094010768   0 0 0
Pt 4.2426406871 5.7154760665 10.8094010768   0 0 0
Pt 7.0710678119 5.7154760665 10.8094010768   0 0 0
Pt 9.8994949366 5.7154760665 10.8094010768   0 0 0
Pt 0.0174615891 1.6401602896 13.1056661019  
Pt 2.8316911217 1.6346040910 13.1163091486  
Pt 5.6556067023 1.6376306615 13.0969592122  
Pt 1.4234441527 4.0752936943 13.1062528680  
Pt 4.2462310934 4.0786506022 13.0969078173  
Pt 7.0701045282 4.0816269666 13.0930212782  
Pt 2.8355687045 6.5259961041 13.0915063372  
Pt 5.6634871901 6.5283863033 13.1057307639  
Pt 8.4755047173 6.5283779430 13.1062579524  
Pt 0.0014226324 0.0001760127 15.4216547104  
Pt 2.8480776172 -0.0159397146 15.4966796847  
Pt 5.6694867058 0.0049231117 15.4260888131  
Pt 1.4112169395 2.4730969763 15.4967394550  
Pt 4.2784001167 2.4694776596 15.4567241197  
Pt 7.0718634978 2.4520846264 15.4282192140  
Pt 2.8396300046 4.9063621451 15.4259999314  
Pt 5.6600215120 4.8971731573 15.4282550096  
Pt 8.4847392938 4.8977734801 15.4294442134  
H 2.5996319447 1.4991053506 16.4155176185  

