&CONTROL
   tprnfor          = .true.
   pseudo_dir       = '/users/kbadger1/espresso/pseudo/pslibrary.1.0.0/pbe/PSEUDOPOTENTIALS/'
/
&SYSTEM
   ecutwfc          = 40
   ecutrho          = 410
   nosym            = .true.
   occupations      = 'smearing'
   degauss          = 0.001
   smearing         = 'marzari-vanderbilt'
   nspin            = 1
   input_dft        = 'beef-vdw'
   ntyp             = 4
   nat              = 41
   ibrav            = 0
/
&ELECTRONS
   mixing_mode      = 'local-TF'
/
&IONS
/
&CELL
/
&FCP
/
&RISM
/
ATOMIC_SPECIES
Pt 195.084 Pt.pbe-n-kjpaw_psl.1.0.0.UPF
O 15.999 O.pbe-nl-kjpaw_psl.1.0.0.UPF
H 1.008 H.pbe-kjpaw_psl.1.0.0.UPF
C 12.011 C.pbe-n-kjpaw_psl.1.0.0.UPF

K_POINTS automatic
5 5 1  0 0 0

CELL_PARAMETERS angstrom
8.48528137423857 0.00000000000000 0.00000000000000
4.24264068711929 7.34846922834953 0.00000000000000
0.00000000000000 0.00000000000000 23.92820323027551

ATOMIC_POSITIONS angstrom
Pt 0.0000000000 0.0000000000 8.5000000000   0 0 0
Pt 2.8284271247 0.0000000000 8.5000000000   0 0 0
Pt 5.6568542495 0.0000000000 8.5000000000   0 0 0
Pt 1.4142135624 2.4494897428 8.5000000000   0 0 0
Pt 4.2426406871 2.4494897428 8.5000000000   0 0 0
Pt 7.0710678119 2.4494897428 8.5000000000   0 0 0
Pt 2.8284271247 4.8989794856 8.5000000000   0 0 0
Pt 5.6568542495 4.8989794856 8.5000000000   0 0 0
Pt 8.4852813742 4.8989794856 8.5000000000   0 0 0
Pt 1.4142135624 0.8164965809 10.8094010768   0 0 0
Pt 4.2426406871 0.8164965809 10.8094010768   0 0 0
Pt 7.0710678119 0.8164965809 10.8094010768   0 0 0
Pt 2.8284271247 3.2659863237 10.8094010768   0 0 0
Pt 5.6568542495 3.2659863237 10.8094010768   0 0 0
Pt 8.4852813742 3.2659863237 10.8094010768   0 0 0
Pt 4.2426406871 5.7154760665 10.8094010768   0 0 0
Pt 7.0710678119 5.7154760665 10.8094010768   0 0 0
Pt 9.8994949366 5.7154760665 10.8094010768   0 0 0
Pt 0.0169370298 1.6678219272 13.1038419299  
Pt 2.8141204148 1.6698652533 13.1217186104  
Pt 5.6185451275 1.6834325480 13.1474953327  
Pt 1.4274974523 4.1364739992 13.1778132418  
Pt 4.2234226652 4.0814670343 13.1475014867  
Pt 7.0671507811 4.1108318565 13.1089933241  
Pt 2.8135361231 6.5658205967 13.0786048650  
Pt 5.6355343802 6.5579909176 13.0731529278  
Pt 8.4668575963 6.5574162207 13.0874835899  
Pt -0.0416545750 0.1593539922 15.3869670372  
Pt 2.7752547525 0.0463639945 15.4041332714  
Pt 5.6127718383 0.0446450816 15.4037959963  
Pt 1.3408401316 2.4992327313 15.4548104653  
Pt 4.2253405189 2.4832208932 15.6030036399  
Pt 7.0611726823 2.5172833950 15.4783695514  
Pt 2.6879053106 4.9299376771 15.4510015089  
Pt 5.7116753908 4.9258006575 15.3752076190  
Pt 8.4275906499 4.9652848061 15.4724095454  
O 3.9727748922 5.7228610069 16.9689964059  
H 3.7335121502 5.5186844553 17.9510618506  
H 4.8297660875 2.9962681626 18.0886787580  
H 3.2046428708 2.1749860623 17.9968788219  
C 4.0593661638 2.4999089652 17.4738612049  

