&CONTROL
   tprnfor          = .true.
   pseudo_dir       = '/users/kbadger1/espresso/pseudo/pslibrary.1.0.0/pbe/PSEUDOPOTENTIALS/'
/
&SYSTEM
   ecutwfc          = 40
   ecutrho          = 410
   nosym            = .true.
   occupations      = 'smearing'
   degauss          = 0.02
   smearing         = 'marzari-vanderbilt'
   nspin            = 1
   input_dft        = 'beef-vdw'
   ntyp             = 2
   nat              = 37
   ibrav            = 0
/
&ELECTRONS
   conv_thr         = 1e-08
   mixing_mode      = 'local-TF'
/
&IONS
/
&CELL
/
&FCP
/
&RISM
/
ATOMIC_SPECIES
Pt 195.084 Pt.pbe-n-kjpaw_psl.1.0.0.UPF
H 1.008 H.pbe-kjpaw_psl.1.0.0.UPF

K_POINTS automatic
5 5 1  0 0 0

CELL_PARAMETERS angstrom
8.48528137423857 0.00000000000000 0.00000000000000
4.24264068711929 7.34846922834953 0.00000000000000
0.00000000000000 0.00000000000000 23.92820323027551

ATOMIC_POSITIONS angstrom
Pt 0.0000000000 0.0000000000 8.5000000000   0 0 0
Pt 2.8284271247 0.0000000000 8.5000000000   0 0 0
Pt 5.6568542495 0.0000000000 8.5000000000   0 0 0
Pt 1.4142135624 2.4494897428 8.5000000000   0 0 0
Pt 4.2426406871 2.4494897428 8.5000000000   0 0 0
Pt 7.0710678119 2.4494897428 8.5000000000   0 0 0
Pt 2.8284271247 4.8989794856 8.5000000000   0 0 0
Pt 5.6568542495 4.8989794856 8.5000000000   0 0 0
Pt 8.4852813742 4.8989794856 8.5000000000   0 0 0
Pt 1.4142135624 0.8164965809 10.8094010768   0 0 0
Pt 4.2426406871 0.8164965809 10.8094010768   0 0 0
Pt 7.0710678119 0.8164965809 10.8094010768   0 0 0
Pt 2.8284271247 3.2659863237 10.8094010768   0 0 0
Pt 5.6568542495 3.2659863237 10.8094010768   0 0 0
Pt 8.4852813742 3.2659863237 10.8094010768   0 0 0
Pt 4.2426406871 5.7154760665 10.8094010768   0 0 0
Pt 7.0710678119 5.7154760665 10.8094010768   0 0 0
Pt 9.8994949366 5.7154760665 10.8094010768   0 0 0
Pt 0.0397764240 1.6297470751 13.1209486841  
Pt 2.8536570267 1.6194388330 13.1029331415  
Pt 5.6900388281 1.6220668205 13.0919643326  
Pt 1.4378097716 4.0503658491 13.1220255329  
Pt 4.2637879817 4.0697875817 13.0952244255  
Pt 7.0955705229 4.0693144459 13.1001962861  
Pt 2.8534970689 6.5182172393 13.0929096241  
Pt 5.6793186677 6.5215634514 13.0952213678  
Pt 8.5122040144 6.5099962023 13.0920297189  
Pt 0.0494210595 -0.0323271570 15.4248196912  
Pt 2.8942384050 -0.0471873944 15.4181452344  
Pt 5.7104507013 -0.0287174863 15.4242214664  
Pt 1.4948914590 2.4042487339 15.5423299225  
Pt 4.3179541394 2.4196522158 15.4180128581  
Pt 7.1305938181 2.4176103039 15.4313495339  
Pt 2.8829492059 4.8749893909 15.4252145766  
Pt 5.7077774733 4.8717858501 15.4229071747  
Pt 8.5445647501 4.8665418667 15.4315470449  
H 1.7996710517 2.2140158814 17.0626497367  

