&CONTROL
   tprnfor          = .true.
   pseudo_dir       = '/users/kbadger1/espresso/pseudo/pslibrary.1.0.0/pbe/PSEUDOPOTENTIALS/'
/
&SYSTEM
   ecutwfc          = 40
   ecutrho          = 410
   nosym            = .true.
   occupations      = 'smearing'
   degauss          = 0.02
   smearing         = 'marzari-vanderbilt'
   nspin            = 1
   input_dft        = 'beef-vdw'
   ntyp             = 3
   nat              = 39
   ibrav            = 0
/
&ELECTRONS
   conv_thr         = 1e-08
   mixing_mode      = 'local-TF'
/
&IONS
/
&CELL
/
&FCP
/
&RISM
/
ATOMIC_SPECIES
Pt 195.084 Pt.pbe-n-kjpaw_psl.1.0.0.UPF
O 15.999 O.pbe-nl-kjpaw_psl.1.0.0.UPF
H 1.008 H.pbe-kjpaw_psl.1.0.0.UPF

K_POINTS automatic
5 5 1  0 0 0

CELL_PARAMETERS angstrom
8.48528137423857 0.00000000000000 0.00000000000000
4.24264068711929 7.34846922834953 0.00000000000000
0.00000000000000 0.00000000000000 23.92820323027551

ATOMIC_POSITIONS angstrom
Pt 0.0000000000 0.0000000000 8.5000000000   0 0 0
Pt 2.8284271247 0.0000000000 8.5000000000   0 0 0
Pt 5.6568542495 0.0000000000 8.5000000000   0 0 0
Pt 1.4142135624 2.4494897428 8.5000000000   0 0 0
Pt 4.2426406871 2.4494897428 8.5000000000   0 0 0
Pt 7.0710678119 2.4494897428 8.5000000000   0 0 0
Pt 2.8284271247 4.8989794856 8.5000000000   0 0 0
Pt 5.6568542495 4.8989794856 8.5000000000   0 0 0
Pt 8.4852813742 4.8989794856 8.5000000000   0 0 0
Pt 1.4142135624 0.8164965809 10.8094010768   0 0 0
Pt 4.2426406871 0.8164965809 10.8094010768   0 0 0
Pt 7.0710678119 0.8164965809 10.8094010768   0 0 0
Pt 2.8284271247 3.2659863237 10.8094010768   0 0 0
Pt 5.6568542495 3.2659863237 10.8094010768   0 0 0
Pt 8.4852813742 3.2659863237 10.8094010768   0 0 0
Pt 4.2426406871 5.7154760665 10.8094010768   0 0 0
Pt 7.0710678119 5.7154760665 10.8094010768   0 0 0
Pt 9.8994949366 5.7154760665 10.8094010768   0 0 0
Pt 0.0051214762 1.6276151514 13.0841757599  
Pt 2.8390627980 1.6319105337 13.1015021529  
Pt 5.6572160939 1.6306631038 13.1019671339  
Pt 1.4184397359 4.0790079035 13.0908809095  
Pt 4.2480744782 4.0733038852 13.0994917130  
Pt 7.0771280755 4.0788009338 13.0904286793  
Pt 2.8338360092 6.5296573075 13.0856192797  
Pt 5.6610240760 6.5290817104 13.0848641500  
Pt 8.4913458420 6.5275502752 13.0925302442  
Pt 0.0103816814 -0.0096128572 15.4175831778  
Pt 2.8341082677 -0.0196316866 15.4135179335  
Pt 5.6711617637 -0.0193452799 15.4232308670  
Pt 1.4133872340 2.4408017223 15.4117111344  
Pt 4.2488433942 2.4412372512 15.4466877950  
Pt 7.0910949708 2.4418898760 15.4120225020  
Pt 2.8334690862 4.8988075552 15.4109977239  
Pt 5.6734063268 4.8980786017 15.4134839973  
Pt 8.4948909204 4.8895330488 15.4233447253  
O 4.3072181299 2.3333602533 18.0018797604  
H 5.0414704215 2.9592868031 18.1736884742  
H 4.6541784281 1.4145960762 18.0889118914  

