&CONTROL
   tprnfor          = .true.
   pseudo_dir       = '/users/kbadger1/espresso/pseudo/pslibrary.1.0.0/pbe/PSEUDOPOTENTIALS/'
/
&SYSTEM
   ecutwfc          = 40
   ecutrho          = 410
   nosym            = .true.
   occupations      = 'smearing'
   degauss          = 0.02
   smearing         = 'marzari-vanderbilt'
   nspin            = 1
   input_dft        = 'beef-vdw'
   ntyp             = 3
   nat              = 38
   ibrav            = 0
/
&ELECTRONS
   mixing_mode      = 'local-TF'
/
&IONS
/
&CELL
/
&FCP
/
&RISM
/
ATOMIC_SPECIES
Pt 195.084 Pt.pbe-n-kjpaw_psl.1.0.0.UPF
H 1.008 H.pbe-kjpaw_psl.1.0.0.UPF
C 12.011 C.pbe-n-kjpaw_psl.1.0.0.UPF

K_POINTS automatic
5 5 1  0 0 0

CELL_PARAMETERS angstrom
8.46831000000000 0.00000000000000 0.00000000000000
4.23415500000000 7.33377158712180 0.00000000000000
0.00000000000000 0.00000000000000 24.96566199000000

ATOMIC_POSITIONS angstrom
Pt 0.0000000000 0.0000000000 8.5000000000   0 0 0
Pt 2.8284271247 0.0000000000 8.5000000000   0 0 0
Pt 5.6568542495 0.0000000000 8.5000000000   0 0 0
Pt 1.4142135624 2.4494897428 8.5000000000   0 0 0
Pt 4.2426406871 2.4494897428 8.5000000000   0 0 0
Pt 7.0710678119 2.4494897428 8.5000000000   0 0 0
Pt 2.8284271247 4.8989794856 8.5000000000   0 0 0
Pt 5.6568542495 4.8989794856 8.5000000000   0 0 0
Pt 8.4852813742 4.8989794856 8.5000000000   0 0 0
Pt 1.4142135624 0.8164965809 10.8094010768   0 0 0
Pt 4.2426406871 0.8164965809 10.8094010768   0 0 0
Pt 7.0710678119 0.8164965809 10.8094010768   0 0 0
Pt 2.8284271247 3.2659863237 10.8094010768   0 0 0
Pt 5.6568542495 3.2659863237 10.8094010768   0 0 0
Pt 8.4852813742 3.2659863237 10.8094010768   0 0 0
Pt 4.2426406871 5.7154760665 10.8094010768   0 0 0
Pt 7.0710678119 5.7154760665 10.8094010768   0 0 0
Pt 9.8994949366 5.7154760665 10.8094010768   0 0 0
Pt 0.0172502088 1.6601524464 13.1145996791  
Pt 2.8299927022 1.6591192103 13.1120928933  
Pt 5.6581042031 1.6609184576 13.0866873066  
Pt 1.4244541662 4.1264086251 13.0914092235  
Pt 4.2425448603 4.1108404275 13.0883295742  
Pt 7.0738251500 4.1108498535 13.0875624068  
Pt 2.8530800231 6.5693903878 13.1261292968  
Pt 5.6585474731 6.5618741496 13.1228287290  
Pt 8.4656075670 6.5683616400 13.1230726469  
Pt -0.0285669479 0.0687464517 15.5750503982  
Pt 2.8793997457 0.0687975665 15.5729887686  
Pt 5.6591835021 0.0829515236 15.4405394812  
Pt 1.4251774427 2.6782853900 15.4313704234  
Pt 4.2786931248 2.5395906075 15.4127796922  
Pt 7.0401284714 2.5397176708 15.4134814467  
Pt 2.8536580713 4.9971464646 15.4437403380  
Pt 5.6595840457 4.9378903072 15.4161357514  
Pt 8.4649679007 4.9973929346 15.4425112838  
H 1.4270248564 1.7550356456 17.3638675074  
C 1.4264158680 1.0053821383 16.5365344206  

