&CONTROL
   tprnfor          = .true.
   pseudo_dir       = '/users/kbadger1/espresso/pseudo/pslibrary.1.0.0/pbe/PSEUDOPOTENTIALS/'
/
&SYSTEM
   ecutwfc          = 40
   ecutrho          = 410
   nosym            = .true.
   occupations      = 'smearing'
   degauss          = 0.02
   smearing         = 'marzari-vanderbilt'
   nspin            = 1
   input_dft        = 'beef-vdw'
   ntyp             = 3
   nat              = 39
   ibrav            = 0
/
&ELECTRONS
   mixing_mode      = 'local-TF'
/
&IONS
/
&CELL
/
&FCP
/
&RISM
/
ATOMIC_SPECIES
Pt 195.084 Pt.pbe-n-kjpaw_psl.1.0.0.UPF
O 15.999 O.pbe-nl-kjpaw_psl.1.0.0.UPF
H 1.008 H.pbe-kjpaw_psl.1.0.0.UPF

K_POINTS automatic
5 5 1  0 0 0

CELL_PARAMETERS angstrom
8.48528137423857 0.00000000000000 0.00000000000000
4.24264068711929 7.34846922834953 0.00000000000000
0.00000000000000 0.00000000000000 23.92820323027551

ATOMIC_POSITIONS angstrom
Pt 0.0000000000 0.0000000000 8.5000000000   0 0 0
Pt 2.8284271247 0.0000000000 8.5000000000   0 0 0
Pt 5.6568542495 0.0000000000 8.5000000000   0 0 0
Pt 1.4142135624 2.4494897428 8.5000000000   0 0 0
Pt 4.2426406871 2.4494897428 8.5000000000   0 0 0
Pt 7.0710678119 2.4494897428 8.5000000000   0 0 0
Pt 2.8284271247 4.8989794856 8.5000000000   0 0 0
Pt 5.6568542495 4.8989794856 8.5000000000   0 0 0
Pt 8.4852813742 4.8989794856 8.5000000000   0 0 0
Pt 1.4142135624 0.8164965809 10.8094010768   0 0 0
Pt 4.2426406871 0.8164965809 10.8094010768   0 0 0
Pt 7.0710678119 0.8164965809 10.8094010768   0 0 0
Pt 2.8284271247 3.2659863237 10.8094010768   0 0 0
Pt 5.6568542495 3.2659863237 10.8094010768   0 0 0
Pt 8.4852813742 3.2659863237 10.8094010768   0 0 0
Pt 4.2426406871 5.7154760665 10.8094010768   0 0 0
Pt 7.0710678119 5.7154760665 10.8094010768   0 0 0
Pt 9.8994949366 5.7154760665 10.8094010768   0 0 0
Pt -0.0135289402 1.6450528523 13.0826216361  
Pt 2.8143228855 1.6509096915 13.0914958257  
Pt 5.6425359062 1.6456735306 13.0887867611  
Pt 1.3954258928 4.1003800914 13.0926965961  
Pt 4.2245995867 4.0870679159 13.1060300611  
Pt 7.0547839521 4.0998237839 13.0902095040  
Pt 2.8185734454 6.5425002689 13.0808191345  
Pt 5.6367745965 6.5449441453 13.0829176491  
Pt 8.4678768988 6.5447457027 13.0862227167  
Pt -0.0392758568 0.0371692586 15.4199346828  
Pt 2.7824636053 0.0227005619 15.3974593151  
Pt 5.6275689647 0.0165466099 15.3956565845  
Pt 1.3653305763 2.4876475465 15.4100125185  
Pt 4.1964191013 2.5035881978 15.4216340869  
Pt 7.0473041993 2.4887925827 15.4001850306  
Pt 2.7832643829 4.9485317525 15.4223010525  
Pt 5.6254796247 4.9463764855 15.4197433101  
Pt 8.4454727861 4.9358106200 15.4264869727  
O 4.4254389002 2.0354236572 17.8581949619  
H 5.1363767610 2.6457878279 18.1080039242  
H 4.8788948308 1.1925413729 17.6641654923  

