&CONTROL
   tprnfor          = .true.
   pseudo_dir       = '/users/kbadger1/espresso/pseudo/pslibrary.1.0.0/pbe/PSEUDOPOTENTIALS/'
/
&SYSTEM
   ecutwfc          = 40
   ecutrho          = 410
   nosym            = .true.
   occupations      = 'smearing'
   degauss          = 0.001
   smearing         = 'marzari-vanderbilt'
   nspin            = 1
   input_dft        = 'beef-vdw'
   ntyp             = 3
   nat              = 38
   ibrav            = 0
/
&ELECTRONS
   conv_thr         = 1e-08
   mixing_mode      = 'local-TF'
/
&IONS
/
&CELL
/
&FCP
/
&RISM
/
ATOMIC_SPECIES
Pt 195.084 Pt.pbe-n-kjpaw_psl.1.0.0.UPF
C 12.011 C.pbe-n-kjpaw_psl.1.0.0.UPF
H 1.008 H.pbe-kjpaw_psl.1.0.0.UPF

K_POINTS automatic
5 5 1  0 0 0

CELL_PARAMETERS angstrom
8.48528137423857 0.00000000000000 0.00000000000000
4.24264068711929 7.34846922834953 0.00000000000000
0.00000000000000 0.00000000000000 23.92820323027551

ATOMIC_POSITIONS angstrom
Pt 0.0000000000 0.0000000000 8.5000000000   0 0 0
Pt 2.8284271247 0.0000000000 8.5000000000   0 0 0
Pt 5.6568542495 0.0000000000 8.5000000000   0 0 0
Pt 1.4142135624 2.4494897428 8.5000000000   0 0 0
Pt 4.2426406871 2.4494897428 8.5000000000   0 0 0
Pt 7.0710678119 2.4494897428 8.5000000000   0 0 0
Pt 2.8284271247 4.8989794856 8.5000000000   0 0 0
Pt 5.6568542495 4.8989794856 8.5000000000   0 0 0
Pt 8.4852813742 4.8989794856 8.5000000000   0 0 0
Pt 1.4142135624 0.8164965809 10.8094010768   0 0 0
Pt 4.2426406871 0.8164965809 10.8094010768   0 0 0
Pt 7.0710678119 0.8164965809 10.8094010768   0 0 0
Pt 2.8284271247 3.2659863237 10.8094010768   0 0 0
Pt 5.6568542495 3.2659863237 10.8094010768   0 0 0
Pt 8.4852813742 3.2659863237 10.8094010768   0 0 0
Pt 4.2426406871 5.7154760665 10.8094010768   0 0 0
Pt 7.0710678119 5.7154760665 10.8094010768   0 0 0
Pt 9.8994949366 5.7154760665 10.8094010768   0 0 0
Pt 0.0100090694 1.6553857744 13.1296932383  
Pt 2.8183883104 1.6553694575 13.1296738404  
Pt 5.6568677109 1.6611856873 13.0859157460  
Pt 1.4141807819 4.0996603546 13.1369261155  
Pt 4.2377397039 4.1120241345 13.0834235584  
Pt 7.0759815169 4.1120108527 13.0834506167  
Pt 2.8423460091 6.5754215509 13.1243600377  
Pt 5.6568475531 6.5717474105 13.1254021788  
Pt 8.4713413741 6.5753987569 13.1243549324  
Pt -0.0676449405 0.0400087301 15.5654047605  
Pt 2.8960323202 0.0400034549 15.5653812101  
Pt 5.6568421715 0.0759342138 15.4440065657  
Pt 1.4141935970 2.6907133885 15.5278314547  
Pt 4.2730389005 2.5342326104 15.4019735178  
Pt 7.0406361213 2.5342245099 15.4019749006  
Pt 2.8477236080 4.9961838154 15.4411213758  
Pt 5.6568272216 4.9336763034 15.3974940643  
Pt 8.4659617761 4.9961726153 15.4411233413  
C 1.4142013308 0.9247417184 16.4813669226  
H 1.4142219880 1.9896524337 17.1922726183  

