&CONTROL
   tprnfor          = .true.
   pseudo_dir       = '/users/kbadger1/espresso/pseudo/pslibrary.1.0.0/pbe/PSEUDOPOTENTIALS/'
/
&SYSTEM
   ecutwfc          = 40
   ecutrho          = 410
   nosym            = .true.
   occupations      = 'smearing'
   degauss          = 0.02
   smearing         = 'marzari-vanderbilt'
   nspin            = 1
   input_dft        = 'beef-vdw'
   ntyp             = 3
   nat              = 38
   ibrav            = 0
/
&ELECTRONS
   mixing_mode      = 'local-TF'
/
&IONS
/
&CELL
/
&FCP
/
&RISM
/
ATOMIC_SPECIES
Pt 195.084 Pt.pbe-n-kjpaw_psl.1.0.0.UPF
H 1.008 H.pbe-kjpaw_psl.1.0.0.UPF
C 12.011 C.pbe-n-kjpaw_psl.1.0.0.UPF

K_POINTS automatic
5 5 1  0 0 0

CELL_PARAMETERS angstrom
8.46831000000000 0.00000000000000 0.00000000000000
4.23415500000000 7.33377158712180 0.00000000000000
0.00000000000000 0.00000000000000 24.96566199000000

ATOMIC_POSITIONS angstrom
Pt 0.0000000000 0.0000000000 8.5000000000   0 0 0
Pt 2.8284271247 0.0000000000 8.5000000000   0 0 0
Pt 5.6568542495 0.0000000000 8.5000000000   0 0 0
Pt 1.4142135624 2.4494897428 8.5000000000   0 0 0
Pt 4.2426406871 2.4494897428 8.5000000000   0 0 0
Pt 7.0710678119 2.4494897428 8.5000000000   0 0 0
Pt 2.8284271247 4.8989794856 8.5000000000   0 0 0
Pt 5.6568542495 4.8989794856 8.5000000000   0 0 0
Pt 8.4852813742 4.8989794856 8.5000000000   0 0 0
Pt 1.4142135624 0.8164965809 10.8094010768   0 0 0
Pt 4.2426406871 0.8164965809 10.8094010768   0 0 0
Pt 7.0710678119 0.8164965809 10.8094010768   0 0 0
Pt 2.8284271247 3.2659863237 10.8094010768   0 0 0
Pt 5.6568542495 3.2659863237 10.8094010768   0 0 0
Pt 8.4852813742 3.2659863237 10.8094010768   0 0 0
Pt 4.2426406871 5.7154760665 10.8094010768   0 0 0
Pt 7.0710678119 5.7154760665 10.8094010768   0 0 0
Pt 9.8994949366 5.7154760665 10.8094010768   0 0 0
Pt 0.0333837812 1.6478225044 13.1598759115  
Pt 2.8146313000 1.6471636047 13.1567674761  
Pt 5.6582436558 1.6525935571 13.0869764039  
Pt 1.4244246705 4.0600294458 13.1325055985  
Pt 4.2431460089 4.0883135578 13.0790873864  
Pt 7.0732904412 4.0883763470 13.0787324315  
Pt 2.8474269903 6.5473468780 13.1111515390  
Pt 5.6585429388 6.5454938056 13.1213341595  
Pt 8.4714073957 6.5462014320 13.1081220095  
Pt -0.1125509573 -0.0489674656 15.5423778243  
Pt 2.9615674647 -0.0481282547 15.5392958870  
Pt 5.6586611773 0.0368561855 15.4228052086  
Pt 1.4247995547 2.6343478533 15.7953747843  
Pt 4.2657148944 2.4881271516 15.4152262639  
Pt 7.0524322885 2.4883249307 15.4162923437  
Pt 2.8399606115 4.9233352053 15.4020429150  
Pt 5.6592439187 4.8812966402 15.3968027827  
Pt 8.4780563868 4.9238833705 15.4015183538  
H 1.4264326616 2.8968659517 17.3310919025  
C 1.4248067172 0.7546983961 16.2615987556  

