&CONTROL
   tprnfor          = .true.
   pseudo_dir       = '/users/kbadger1/espresso/pseudo/pslibrary.1.0.0/pbe/PSEUDOPOTENTIALS/'
/
&SYSTEM
   ecutwfc          = 40
   ecutrho          = 410
   nosym            = .true.
   occupations      = 'smearing'
   degauss          = 0.02
   smearing         = 'marzari-vanderbilt'
   nspin            = 1
   input_dft        = 'beef-vdw'
   ntyp             = 2
   nat              = 37
   ibrav            = 0
/
&ELECTRONS
   mixing_mode      = 'local-TF'
/
&IONS
/
&CELL
/
&FCP
/
&RISM
/
ATOMIC_SPECIES
Pt 195.084 Pt.pbe-n-kjpaw_psl.1.0.0.UPF
H 1.008 H.pbe-kjpaw_psl.1.0.0.UPF

K_POINTS automatic
5 5 1  0 0 0

CELL_PARAMETERS angstrom
8.46831000000000 0.00000000000000 0.00000000000000
4.23415500000000 7.33377158712180 0.00000000000000
0.00000000000000 0.00000000000000 24.96566199000000

ATOMIC_POSITIONS angstrom
Pt 0.0000000000 0.0000000000 8.5000000000   0 0 0
Pt 2.8284271247 0.0000000000 8.5000000000   0 0 0
Pt 5.6568542495 0.0000000000 8.5000000000   0 0 0
Pt 1.4142135624 2.4494897428 8.5000000000   0 0 0
Pt 4.2426406871 2.4494897428 8.5000000000   0 0 0
Pt 7.0710678119 2.4494897428 8.5000000000   0 0 0
Pt 2.8284271247 4.8989794856 8.5000000000   0 0 0
Pt 5.6568542495 4.8989794856 8.5000000000   0 0 0
Pt 8.4852813742 4.8989794856 8.5000000000   0 0 0
Pt 1.4142135624 0.8164965809 10.8094010768   0 0 0
Pt 4.2426406871 0.8164965809 10.8094010768   0 0 0
Pt 7.0710678119 0.8164965809 10.8094010768   0 0 0
Pt 2.8284271247 3.2659863237 10.8094010768   0 0 0
Pt 5.6568542495 3.2659863237 10.8094010768   0 0 0
Pt 8.4852813742 3.2659863237 10.8094010768   0 0 0
Pt 4.2426406871 5.7154760665 10.8094010768   0 0 0
Pt 7.0710678119 5.7154760665 10.8094010768   0 0 0
Pt 9.8994949366 5.7154760665 10.8094010768   0 0 0
Pt 0.0235918110 1.6427249821 13.1070858805  
Pt 2.8361254701 1.6381571836 13.1177075632  
Pt 5.6651561352 1.6391891768 13.0903282612  
Pt 1.4268447484 4.0734244341 13.1133726057  
Pt 4.2515072989 4.0877098695 13.0903134688  
Pt 7.0753445166 4.0856415122 13.0932184025  
Pt 2.8367631859 6.5276655953 13.0923934749  
Pt 5.6679875032 6.5338771589 13.1071861506  
Pt 8.4747510284 6.5336701306 13.1134779928  
Pt -0.0005543391 0.0011614035 15.4190843617  
Pt 2.8694454709 0.0076812921 15.5078331851  
Pt 5.6758160257 0.0176832132 15.4287103720  
Pt 1.4400674269 2.4833342543 15.5077044063  
Pt 4.2966893910 2.4822976454 15.4194967836  
Pt 7.0866266620 2.4636673725 15.4269975342  
Pt 2.8518685995 4.9087799095 15.4284621018  
Pt 5.6755938354 4.9075638916 15.4270526390  
Pt 8.4966086272 4.9069213224 15.4319214043  
H 2.1290471595 1.2307919978 16.5323846493  

