&CONTROL
   tprnfor          = .true.
   pseudo_dir       = '/users/kbadger1/espresso/pseudo/pslibrary.1.0.0/pbe/PSEUDOPOTENTIALS/'
/
&SYSTEM
   ecutwfc          = 40
   ecutrho          = 410
   nosym            = .true.
   occupations      = 'smearing'
   degauss          = 0.02
   smearing         = 'marzari-vanderbilt'
   nspin            = 1
   input_dft        = 'beef-vdw'
   ntyp             = 2
   nat              = 37
   ibrav            = 0
/
&ELECTRONS
   mixing_mode      = 'local-TF'
/
&IONS
/
&CELL
/
&FCP
/
&RISM
/
ATOMIC_SPECIES
Pt 195.084 Pt.pbe-n-kjpaw_psl.1.0.0.UPF
H 1.008 H.pbe-kjpaw_psl.1.0.0.UPF

K_POINTS automatic
5 5 1  0 0 0

CELL_PARAMETERS angstrom
8.48528137423857 0.00000000000000 0.00000000000000
4.24264068711929 7.34846922834953 0.00000000000000
0.00000000000000 0.00000000000000 23.92820323027551

ATOMIC_POSITIONS angstrom
Pt 0.0000000000 0.0000000000 8.5000000000   0 0 0
Pt 2.8284271247 0.0000000000 8.5000000000   0 0 0
Pt 5.6568542495 0.0000000000 8.5000000000   0 0 0
Pt 1.4142135624 2.4494897428 8.5000000000   0 0 0
Pt 4.2426406871 2.4494897428 8.5000000000   0 0 0
Pt 7.0710678119 2.4494897428 8.5000000000   0 0 0
Pt 2.8284271247 4.8989794856 8.5000000000   0 0 0
Pt 5.6568542495 4.8989794856 8.5000000000   0 0 0
Pt 8.4852813742 4.8989794856 8.5000000000   0 0 0
Pt 1.4142135624 0.8164965809 10.8094010768   0 0 0
Pt 4.2426406871 0.8164965809 10.8094010768   0 0 0
Pt 7.0710678119 0.8164965809 10.8094010768   0 0 0
Pt 2.8284271247 3.2659863237 10.8094010768   0 0 0
Pt 5.6568542495 3.2659863237 10.8094010768   0 0 0
Pt 8.4852813742 3.2659863237 10.8094010768   0 0 0
Pt 4.2426406871 5.7154760665 10.8094010768   0 0 0
Pt 7.0710678119 5.7154760665 10.8094010768   0 0 0
Pt 9.8994949366 5.7154760665 10.8094010768   0 0 0
Pt 0.0096991096 1.6370128782 13.0991537188  
Pt 2.8283910362 1.6332779206 13.1115139453  
Pt 5.6626320459 1.6341878063 13.0864219072  
Pt 1.4152721898 4.0722690904 13.1056648297  
Pt 4.2463395184 4.0873366982 13.0863509015  
Pt 7.0750715416 4.0850765742 13.0897265007  
Pt 2.8267647527 6.5313152547 13.0820733540  
Pt 5.6649423760 6.5387931201 13.0991320225  
Pt 8.4767041762 6.5384370220 13.1056816243  
Pt -0.0193454094 -0.0105623758 15.4053873571  
Pt 2.8580918818 -0.0035447207 15.4931598683  
Pt 5.6700499474 0.0062156670 15.4167172137  
Pt 1.4254066330 2.4778942858 15.4931671267  
Pt 4.2876477558 2.4761366154 15.4093549126  
Pt 7.0836172920 2.4574458777 15.4168495411  
Pt 2.8399583654 4.9082589156 15.4166126050  
Pt 5.6694989837 4.9067866966 15.4167944100  
Pt 8.4961627667 4.9058591377 15.4198779681  
H 2.1139468826 1.2210801149 16.5140069917  

