&CONTROL
   tprnfor          = .true.
   pseudo_dir       = '/users/kbadger1/espresso/pseudo/pslibrary.1.0.0/pbe/PSEUDOPOTENTIALS/'
/
&SYSTEM
   ecutwfc          = 40
   ecutrho          = 410
   nosym            = .true.
   occupations      = 'smearing'
   degauss          = 0.001
   smearing         = 'marzari-vanderbilt'
   nspin            = 1
   input_dft        = 'beef-vdw'
   ntyp             = 3
   nat              = 39
   ibrav            = 0
/
&ELECTRONS
   mixing_mode      = 'local-TF'
/
&IONS
/
&CELL
/
&FCP
/
&RISM
/
ATOMIC_SPECIES
Pt 195.084 Pt.pbe-n-kjpaw_psl.1.0.0.UPF
O 15.999 O.pbe-nl-kjpaw_psl.1.0.0.UPF
H 1.008 H.pbe-kjpaw_psl.1.0.0.UPF

K_POINTS automatic
5 5 1  0 0 0

CELL_PARAMETERS angstrom
8.48528137423857 0.00000000000000 0.00000000000000
4.24264068711929 7.34846922834953 0.00000000000000
0.00000000000000 0.00000000000000 23.92820323027551

ATOMIC_POSITIONS angstrom
Pt 0.0000000000 0.0000000000 8.5000000000   0 0 0
Pt 2.8284271247 0.0000000000 8.5000000000   0 0 0
Pt 5.6568542495 0.0000000000 8.5000000000   0 0 0
Pt 1.4142135624 2.4494897428 8.5000000000   0 0 0
Pt 4.2426406871 2.4494897428 8.5000000000   0 0 0
Pt 7.0710678119 2.4494897428 8.5000000000   0 0 0
Pt 2.8284271247 4.8989794856 8.5000000000   0 0 0
Pt 5.6568542495 4.8989794856 8.5000000000   0 0 0
Pt 8.4852813742 4.8989794856 8.5000000000   0 0 0
Pt 1.4142135624 0.8164965809 10.8094010768   0 0 0
Pt 4.2426406871 0.8164965809 10.8094010768   0 0 0
Pt 7.0710678119 0.8164965809 10.8094010768   0 0 0
Pt 2.8284271247 3.2659863237 10.8094010768   0 0 0
Pt 5.6568542495 3.2659863237 10.8094010768   0 0 0
Pt 8.4852813742 3.2659863237 10.8094010768   0 0 0
Pt 4.2426406871 5.7154760665 10.8094010768   0 0 0
Pt 7.0710678119 5.7154760665 10.8094010768   0 0 0
Pt 9.8994949366 5.7154760665 10.8094010768   0 0 0
Pt -0.0171353599 1.6426550303 13.0840269611  
Pt 2.8255102677 1.6528501320 13.1349926519  
Pt 5.6185202825 1.6397571155 13.1722182996  
Pt 1.4016203030 4.0969461592 13.0939959774  
Pt 4.2285689875 4.0836273512 13.1261213090  
Pt 7.0598789990 4.0936309278 13.0911006042  
Pt 2.8047039552 6.5586623653 13.1090858984  
Pt 5.6436839669 6.5471218412 13.0800161345  
Pt 8.4832200188 6.5520086939 13.1262487474  
Pt -0.0137707113 0.0182431757 15.4267388041  
Pt 2.7929454357 0.0023912226 15.4200497734  
Pt 5.6444054235 -0.0042431210 15.5666919882  
Pt 1.3707807024 2.4698377951 15.4074489095  
Pt 4.2416453878 2.4718094941 15.5567427757  
Pt 7.0667358995 2.4692537372 15.4217948583  
Pt 2.8004079407 4.9331343281 15.4122223042  
Pt 5.6462261759 4.9361034704 15.4149118201  
Pt 8.4575340941 4.9140960330 15.4305114473  
O 4.0266441714 2.5300200751 17.5555014546  
H 4.7416272918 3.0915473516 17.8996811412  
H 5.6460166290 -0.0597967786 17.1209184938  

