&CONTROL
   tprnfor          = .true.
   pseudo_dir       = '/users/kbadger1/espresso/pseudo/pslibrary.1.0.0/pbe/PSEUDOPOTENTIALS/'
/
&SYSTEM
   ecutwfc          = 40
   ecutrho          = 410
   nosym            = .true.
   occupations      = 'smearing'
   degauss          = 0.02
   smearing         = 'marzari-vanderbilt'
   nspin            = 1
   input_dft        = 'beef-vdw'
   ntyp             = 2
   nat              = 37
   ibrav            = 0
/
&ELECTRONS
   conv_thr         = 1e-08
   mixing_mode      = 'local-TF'
/
&IONS
/
&CELL
/
&FCP
/
&RISM
/
ATOMIC_SPECIES
Pt 195.084 Pt.pbe-n-kjpaw_psl.1.0.0.UPF
H 1.008 H.pbe-kjpaw_psl.1.0.0.UPF

K_POINTS automatic
5 5 1  0 0 0

CELL_PARAMETERS angstrom
8.48528137423857 0.00000000000000 0.00000000000000
4.24264068711929 7.34846922834953 0.00000000000000
0.00000000000000 0.00000000000000 23.92820323027551

ATOMIC_POSITIONS angstrom
Pt 0.0000000000 0.0000000000 8.5000000000   0 0 0
Pt 2.8284271247 0.0000000000 8.5000000000   0 0 0
Pt 5.6568542495 0.0000000000 8.5000000000   0 0 0
Pt 1.4142135624 2.4494897428 8.5000000000   0 0 0
Pt 4.2426406871 2.4494897428 8.5000000000   0 0 0
Pt 7.0710678119 2.4494897428 8.5000000000   0 0 0
Pt 2.8284271247 4.8989794856 8.5000000000   0 0 0
Pt 5.6568542495 4.8989794856 8.5000000000   0 0 0
Pt 8.4852813742 4.8989794856 8.5000000000   0 0 0
Pt 1.4142135624 0.8164965809 10.8094010768   0 0 0
Pt 4.2426406871 0.8164965809 10.8094010768   0 0 0
Pt 7.0710678119 0.8164965809 10.8094010768   0 0 0
Pt 2.8284271247 3.2659863237 10.8094010768   0 0 0
Pt 5.6568542495 3.2659863237 10.8094010768   0 0 0
Pt 8.4852813742 3.2659863237 10.8094010768   0 0 0
Pt 4.2426406871 5.7154760665 10.8094010768   0 0 0
Pt 7.0710678119 5.7154760665 10.8094010768   0 0 0
Pt 9.8994949366 5.7154760665 10.8094010768   0 0 0
Pt 0.0120826738 1.6381681207 13.0998815790  
Pt 2.8304518078 1.6342235480 13.1129691612  
Pt 5.6645401657 1.6353493550 13.0869817584  
Pt 1.4177294838 4.0731792551 13.1061038041  
Pt 4.2484613136 4.0880381166 13.0869384421  
Pt 7.0774709382 4.0862514519 13.0895200409  
Pt 2.8293858835 6.5325821961 13.0824427237  
Pt 5.6673646704 6.5399361070 13.0998528943  
Pt 8.4789521793 6.5397626293 13.1060680252  
Pt -0.0136481925 -0.0077747296 15.4076859964  
Pt 2.8633243336 -0.0009089162 15.4959976045  
Pt 5.6755912415 0.0089307505 15.4179550710  
Pt 1.4307247209 2.4803907536 15.4960323726  
Pt 4.2924163942 2.4783910486 15.4119267820  
Pt 7.0886411076 2.4602487510 15.4180865603  
Pt 2.8454706728 4.9109572526 15.4180093963  
Pt 5.6747873578 4.9090184208 15.4181443550  
Pt 8.5016332000 4.9085584317 15.4207026846  
H 2.1143755307 1.2208540480 16.5168076611  

