&CONTROL
   tprnfor          = .true.
   pseudo_dir       = '/users/kbadger1/espresso/pseudo/pslibrary.1.0.0/pbe/PSEUDOPOTENTIALS/'
/
&SYSTEM
   ecutwfc          = 50
   ecutrho          = 300
   nosym            = .true.
   occupations      = 'smearing'
   degauss          = 0.001
   smearing         = 'marzari-vanderbilt'
   nspin            = 2
   input_dft        = 'beef-vdw'
   starting_magnetization(1) = 1.7
   starting_magnetization(2) = 1.0
   starting_magnetization(3) = 0.0
   starting_magnetization(4) = 0.0
   ntyp             = 4
   nat              = 39
   ibrav            = 0
/
&ELECTRONS
   conv_thr         = 1e-08
   mixing_mode      = 'local-TF'
/
&IONS
/
&CELL
/
&FCP
/
&RISM
/
ATOMIC_SPECIES
Co  58.933194 Co.pbe-n-kjpaw_psl.1.0.0.UPF
C  12.011 C.pbe-n-kjpaw_psl.1.0.0.UPF
O  15.999 O.pbe-nl-kjpaw_psl.1.0.0.UPF
H  1.008 H.pbe-kjpaw_psl.1.0.0.UPF

K_POINTS automatic
5 5 1  0 0 0

CELL_PARAMETERS angstrom
7.50000000000000 0.00000000000000 0.00000000000000
3.75000000000000 6.49519052838329 0.00000000000000
0.00000000000000 0.00000000000000 26.08250000000000

ATOMIC_POSITIONS angstrom
Co  0.0000000000 1.4433756730 10.0000000000   0 0 0
Co  2.5000000000 1.4433756730 10.0000000000   0 0 0
Co  5.0000000000 1.4433756730 10.0000000000   0 0 0
Co  1.2500000000 3.6084391824 10.0000000000   0 0 0
Co  3.7500000000 3.6084391824 10.0000000000   0 0 0
Co  6.2500000000 3.6084391824 10.0000000000   0 0 0
Co  2.5000000000 5.7735026919 10.0000000000   0 0 0
Co  5.0000000000 5.7735026919 10.0000000000   0 0 0
Co  7.5000000000 5.7735026919 10.0000000000   0 0 0
Co  0.0000000000 0.0000000000 12.0275000000   0 0 0
Co  2.5000000000 0.0000000000 12.0275000000   0 0 0
Co  5.0000000000 0.0000000000 12.0275000000   0 0 0
Co  1.2500000000 2.1650635095 12.0275000000   0 0 0
Co  3.7500000000 2.1650635095 12.0275000000   0 0 0
Co  6.2500000000 2.1650635095 12.0275000000   0 0 0
Co  2.5000000000 4.3301270189 12.0275000000   0 0 0
Co  5.0000000000 4.3301270189 12.0275000000   0 0 0
Co  7.5000000000 4.3301270189 12.0275000000   0 0 0
Co  0.0000000000 1.4433756730 14.0550000000   0 0 0
Co  2.5000000000 1.4433756730 14.0550000000   0 0 0
Co  5.0000000000 1.4433756730 14.0550000000   0 0 0
Co  1.2500000000 3.6084391824 14.0550000000   0 0 0
Co  3.7500000000 3.6084391824 14.0550000000   0 0 0
Co  6.2500000000 3.6084391824 14.0550000000   0 0 0
Co  2.5000000000 5.7735026919 14.0550000000   0 0 0
Co  5.0000000000 5.7735026919 14.0550000000   0 0 0
Co  7.5000000000 5.7735026919 14.0550000000   0 0 0
Co  0.0000000000 0.0000000000 16.0825000000   0 0 0
Co  2.5000000000 0.0000000000 16.0825000000   0 0 0
Co  5.0000000000 0.0000000000 16.0825000000   0 0 0
Co  1.2500000000 2.1650635095 16.0825000000   0 0 0
Co  3.7500000000 2.1650635095 16.0825000000   0 0 0
Co  6.2500000000 2.1650635095 16.0825000000   0 0 0
Co  2.5000000000 4.3301270189 16.0825000000   0 0 0
Co  5.0000000000 4.3301270189 16.0825000000   0 0 0
Co  7.5000000000 4.3301270189 16.0825000000   0 0 0
C  1.8206750689 -0.0838028260 17.8313481081  
O  0.5958608279 -0.0590889791 18.1276819137  
H  2.5237084692 -0.1547027115 18.6787540020  

