&CONTROL
   tprnfor          = .true.
   pseudo_dir       = '/users/kbadger1/espresso/pseudo/pslibrary.1.0.0/pbe/PSEUDOPOTENTIALS/'
/
&SYSTEM
   ecutwfc          = 40
   ecutrho          = 410
   nosym            = .true.
   occupations      = 'smearing'
   degauss          = 0.02
   smearing         = 'marzari-vanderbilt'
   nspin            = 1
   input_dft        = 'beef-vdw'
   ntyp             = 2
   nat              = 37
   ibrav            = 0
/
&ELECTRONS
   mixing_mode      = 'local-TF'
/
&IONS
/
&CELL
/
&FCP
/
&RISM
/
ATOMIC_SPECIES
Pt 195.084 Pt.pbe-n-kjpaw_psl.1.0.0.UPF
H 1.008 H.pbe-kjpaw_psl.1.0.0.UPF

K_POINTS automatic
5 5 1  0 0 0

CELL_PARAMETERS angstrom
8.46831000000000 0.00000000000000 0.00000000000000
4.23415500000000 7.33377158712180 0.00000000000000
0.00000000000000 0.00000000000000 24.96566199000000

ATOMIC_POSITIONS angstrom
Pt 0.0000000000 0.0000000000 8.5000000000   0 0 0
Pt 2.8284271247 0.0000000000 8.5000000000   0 0 0
Pt 5.6568542495 0.0000000000 8.5000000000   0 0 0
Pt 1.4142135624 2.4494897428 8.5000000000   0 0 0
Pt 4.2426406871 2.4494897428 8.5000000000   0 0 0
Pt 7.0710678119 2.4494897428 8.5000000000   0 0 0
Pt 2.8284271247 4.8989794856 8.5000000000   0 0 0
Pt 5.6568542495 4.8989794856 8.5000000000   0 0 0
Pt 8.4852813742 4.8989794856 8.5000000000   0 0 0
Pt 1.4142135624 0.8164965809 10.8094010768   0 0 0
Pt 4.2426406871 0.8164965809 10.8094010768   0 0 0
Pt 7.0710678119 0.8164965809 10.8094010768   0 0 0
Pt 2.8284271247 3.2659863237 10.8094010768   0 0 0
Pt 5.6568542495 3.2659863237 10.8094010768   0 0 0
Pt 8.4852813742 3.2659863237 10.8094010768   0 0 0
Pt 4.2426406871 5.7154760665 10.8094010768   0 0 0
Pt 7.0710678119 5.7154760665 10.8094010768   0 0 0
Pt 9.8994949366 5.7154760665 10.8094010768   0 0 0
Pt 0.0267467315 1.6451237817 13.1071943265  
Pt 2.8388090555 1.6395010637 13.1187080275  
Pt 5.6671608053 1.6410120072 13.0919982278  
Pt 1.4299492771 4.0765808529 13.1118820775  
Pt 4.2543277525 4.0880950351 13.0919095906  
Pt 7.0782077340 4.0870268082 13.0933456157  
Pt 2.8408740372 6.5298274896 13.0919071577  
Pt 5.6717904854 6.5350737524 13.1072165797  
Pt 8.4792077923 6.5345206502 13.1119656600  
Pt 0.0132974578 0.0086429782 15.4195469541  
Pt 2.8750554760 0.0095695275 15.5081973528  
Pt 5.6854394620 0.0203189210 15.4279252003  
Pt 1.4450207404 2.4864540319 15.5082423214  
Pt 4.3064997034 2.4873191375 15.4269053314  
Pt 7.0952336104 2.4661834215 15.4282030354  
Pt 2.8595052755 4.9149165856 15.4277946059  
Pt 5.6825905980 4.9129255942 15.4282318457  
Pt 8.5039459847 4.9106010019 15.4312624312  
H 2.3197953698 1.3402096789 16.5183361384  

