Pt H 
 1.0000000000000000
     8.4683100000000007    0.0000000000000000    0.0000000000000000
     4.2341550000000012    7.3337715871217997    0.0000000000000000
     0.0000000000000000    0.0000000000000000   24.9656619900000010
 Pt  H  
  36   1
Selective dynamics
Cartesian
  0.0000000000000000  0.0000000000000000  8.5000000000000000   F   F   F
  2.8284271247461903  0.0000000000000000  8.5000000000000000   F   F   F
  5.6568542494923806  0.0000000000000000  8.5000000000000000   F   F   F
  1.4142135623730951  2.4494897427831779  8.5000000000000000   F   F   F
  4.2426406871192857  2.4494897427831779  8.5000000000000000   F   F   F
  7.0710678118654755  2.4494897427831779  8.5000000000000000   F   F   F
  2.8284271247461903  4.8989794855663558  8.5000000000000000   F   F   F
  5.6568542494923806  4.8989794855663558  8.5000000000000000   F   F   F
  8.4852813742385713  4.8989794855663558  8.5000000000000000   F   F   F
  1.4142135623730951  0.8164965809277259 10.8094010767585029   F   F   F
  4.2426406871192848  0.8164965809277259 10.8094010767585029   F   F   F
  7.0710678118654755  0.8164965809277259 10.8094010767585029   F   F   F
  2.8284271247461903  3.2659863237109037 10.8094010767585029   F   F   F
  5.6568542494923806  3.2659863237109037 10.8094010767585029   F   F   F
  8.4852813742385713  3.2659863237109037 10.8094010767585029   F   F   F
  4.2426406871192857  5.7154760664940820 10.8094010767585029   F   F   F
  7.0710678118654755  5.7154760664940820 10.8094010767585029   F   F   F
  9.8994949366116671  5.7154760664940820 10.8094010767585029   F   F   F
  0.0131905247947601  1.6523127970273850 13.1133132005733124   T   T   T
  2.8232742127221298  1.6436662728087381 13.1285665681286385   T   T   T
  5.6373523078017218  1.6499602215321107 13.1090893254675063   T   T   T
  1.4155032180649978  4.0798386870696648 13.1074051214282044   T   T   T
  4.2301829083569293  4.0792849890160552 13.1016768220915818   T   T   T
  7.0571632858681959  4.0834277594019852 13.0881341744662301   T   T   T
  2.8241931099552322  6.5401221456259462 13.0848345930655849   T   T   T
  5.6429156995360614  6.5283561218901189 13.0876022405944070   T   T   T
  8.4708782666061744  6.5271041162978483 13.0863575086792938   T   T   T
 -0.0111542579745074  0.0082802260675702 15.4215663063261168   T   T   T
  2.8123922996860102 -0.0277392906841831 15.4150344430367774   T   T   T
  5.6352757041917263  0.0073621373988860 15.4181656324155121   T   T   T
  1.3857706819110038  2.4430558725757918 15.5135201083873966   T   T   T
  4.2476550754921361  2.4412669498383228 15.5007935316012002   T   T   T
  7.0512108090359851  2.4550611291514866 15.4266982548043003   T   T   T
  2.8132009730406309  4.9371183150884921 15.4106126932810810   T   T   T
  5.6378258298024546  4.8986351624369551 15.4135746300271830   T   T   T
  8.4548755061370429  4.8972760774534230 15.4158556330054566   T   T   T
  2.8122192676855233  2.5803933053135215 16.5111424440412797   T   T   T
