&CONTROL
   tprnfor          = .true.
   pseudo_dir       = '/users/kbadger1/espresso/pseudo/pslibrary.1.0.0/pbe/PSEUDOPOTENTIALS/'
/
&SYSTEM
   ecutwfc          = 40
   ecutrho          = 410
   nosym            = .true.
   occupations      = 'smearing'
   degauss          = 0.02
   smearing         = 'marzari-vanderbilt'
   nspin            = 1
   input_dft        = 'beef-vdw'
   ntyp             = 2
   nat              = 37
   ibrav            = 0
/
&ELECTRONS
   mixing_mode      = 'local-TF'
/
&IONS
/
&CELL
/
&FCP
/
&RISM
/
ATOMIC_SPECIES
Pt 195.084 Pt.pbe-n-kjpaw_psl.1.0.0.UPF
H 1.008 H.pbe-kjpaw_psl.1.0.0.UPF

K_POINTS automatic
5 5 1  0 0 0

CELL_PARAMETERS angstrom
8.46831000000000 0.00000000000000 0.00000000000000
4.23415500000000 7.33377158712180 0.00000000000000
0.00000000000000 0.00000000000000 24.96566199000000

ATOMIC_POSITIONS angstrom
Pt 0.0000000000 0.0000000000 8.5000000000   0 0 0
Pt 2.8284271247 0.0000000000 8.5000000000   0 0 0
Pt 5.6568542495 0.0000000000 8.5000000000   0 0 0
Pt 1.4142135624 2.4494897428 8.5000000000   0 0 0
Pt 4.2426406871 2.4494897428 8.5000000000   0 0 0
Pt 7.0710678119 2.4494897428 8.5000000000   0 0 0
Pt 2.8284271247 4.8989794856 8.5000000000   0 0 0
Pt 5.6568542495 4.8989794856 8.5000000000   0 0 0
Pt 8.4852813742 4.8989794856 8.5000000000   0 0 0
Pt 1.4142135624 0.8164965809 10.8094010768   0 0 0
Pt 4.2426406871 0.8164965809 10.8094010768   0 0 0
Pt 7.0710678119 0.8164965809 10.8094010768   0 0 0
Pt 2.8284271247 3.2659863237 10.8094010768   0 0 0
Pt 5.6568542495 3.2659863237 10.8094010768   0 0 0
Pt 8.4852813742 3.2659863237 10.8094010768   0 0 0
Pt 4.2426406871 5.7154760665 10.8094010768   0 0 0
Pt 7.0710678119 5.7154760665 10.8094010768   0 0 0
Pt 9.8994949366 5.7154760665 10.8094010768   0 0 0
Pt 0.0365811598 1.6293949265 13.1258003650  
Pt 2.8440749415 1.6225055630 13.1117747553  
Pt 5.6563708822 1.6265017621 13.1173281007  
Pt 1.4325213996 4.0568505329 13.1061463847  
Pt 4.2545278638 4.0554753220 13.1061784987  
Pt 7.0787755811 4.0610885271 13.0904935309  
Pt 2.8458747016 6.5121610136 13.0917035329  
Pt 5.6640144143 6.5054148521 13.0943827677  
Pt 8.4930043264 6.5042597138 13.0923748912  
Pt 0.0296403302 -0.0404949171 15.4287206663  
Pt 2.8567954383 -0.0781499454 15.4168909171  
Pt 5.6778486834 -0.0392977534 15.4284185335  
Pt 1.4324509770 2.3897065543 15.5241090173  
Pt 4.2761281737 2.3955385088 15.5122628036  
Pt 7.0853796121 2.4027250439 15.4299990560  
Pt 2.8537300761 4.8787509853 15.4197746610  
Pt 5.6778074197 4.8419466880 15.4260938226  
Pt 8.5015775152 4.8423549949 15.4268217414  
H 2.7200777516 2.4527244201 16.6129857099  

