&CONTROL
   tprnfor          = .true.
   pseudo_dir       = '/users/kbadger1/espresso/pseudo/pslibrary.1.0.0/pbe/PSEUDOPOTENTIALS/'
/
&SYSTEM
   ecutwfc          = 40
   ecutrho          = 410
   nosym            = .true.
   occupations      = 'smearing'
   degauss          = 0.02
   smearing         = 'marzari-vanderbilt'
   nspin            = 1
   input_dft        = 'beef-vdw'
   ntyp             = 3
   nat              = 38
   ibrav            = 0
/
&ELECTRONS
   mixing_mode      = 'local-TF'
/
&IONS
/
&CELL
/
&FCP
/
&RISM
/
ATOMIC_SPECIES
Pt 195.084 Pt.pbe-n-kjpaw_psl.1.0.0.UPF
C 12.011 C.pbe-n-kjpaw_psl.1.0.0.UPF
H 1.008 H.pbe-kjpaw_psl.1.0.0.UPF

K_POINTS automatic
5 5 1  0 0 0

CELL_PARAMETERS angstrom
8.48528137423857 0.00000000000000 0.00000000000000
4.24264068711929 7.34846922834953 0.00000000000000
0.00000000000000 0.00000000000000 23.92820323027551

ATOMIC_POSITIONS angstrom
Pt 0.0000000000 0.0000000000 8.5000000000   0 0 0
Pt 2.8284271247 0.0000000000 8.5000000000   0 0 0
Pt 5.6568542495 0.0000000000 8.5000000000   0 0 0
Pt 1.4142135624 2.4494897428 8.5000000000   0 0 0
Pt 4.2426406871 2.4494897428 8.5000000000   0 0 0
Pt 7.0710678119 2.4494897428 8.5000000000   0 0 0
Pt 2.8284271247 4.8989794856 8.5000000000   0 0 0
Pt 5.6568542495 4.8989794856 8.5000000000   0 0 0
Pt 8.4852813742 4.8989794856 8.5000000000   0 0 0
Pt 1.4142135624 0.8164965809 10.8094010768   0 0 0
Pt 4.2426406871 0.8164965809 10.8094010768   0 0 0
Pt 7.0710678119 0.8164965809 10.8094010768   0 0 0
Pt 2.8284271247 3.2659863237 10.8094010768   0 0 0
Pt 5.6568542495 3.2659863237 10.8094010768   0 0 0
Pt 8.4852813742 3.2659863237 10.8094010768   0 0 0
Pt 4.2426406871 5.7154760665 10.8094010768   0 0 0
Pt 7.0710678119 5.7154760665 10.8094010768   0 0 0
Pt 9.8994949366 5.7154760665 10.8094010768   0 0 0
Pt 0.0020552033 1.6494471242 13.1014408974  
Pt 2.8240590123 1.6495227237 13.1013299627  
Pt 5.6557291401 1.6497807166 13.0838891753  
Pt 1.4132121360 4.1249533878 13.0728539485  
Pt 4.2399664650 4.1048194507 13.0865854047  
Pt 7.0714579441 4.1048028570 13.0867717905  
Pt 2.8443517841 6.5670208243 13.1114151563  
Pt 5.6556122112 6.5615868303 13.1210054350  
Pt 8.4671472364 6.5670563222 13.1114186856  
Pt -0.0369649590 0.0432272167 15.5637421479  
Pt 2.8608348735 0.0432717337 15.5633345568  
Pt 5.6546449009 0.0532142541 15.4233592530  
Pt 1.4117975508 2.6263200150 15.4157326267  
Pt 4.2709074442 2.5154173282 15.4065681246  
Pt 7.0380653415 2.5153872815 15.4068369356  
Pt 2.8377899922 4.9730276576 15.4205407064  
Pt 5.6544328779 4.9218797027 15.4143807221  
Pt 8.4712074166 4.9729822463 15.4207359141  
C 1.4120907801 0.9994332974 16.5454872601  
H 1.4119722269 1.3967023141 17.5611373220  

