&CONTROL
   tprnfor          = .true.
   pseudo_dir       = '/users/kbadger1/espresso/pseudo/pslibrary.1.0.0/pbe/PSEUDOPOTENTIALS/'
/
&SYSTEM
   ecutwfc          = 40
   ecutrho          = 410
   nosym            = .true.
   occupations      = 'smearing'
   degauss          = 0.02
   smearing         = 'marzari-vanderbilt'
   nspin            = 1
   input_dft        = 'beef-vdw'
   ntyp             = 3
   nat              = 38
   ibrav            = 0
/
&ELECTRONS
   mixing_mode      = 'local-TF'
/
&IONS
/
&CELL
/
&FCP
/
&RISM
/
ATOMIC_SPECIES
Pt 195.084 Pt.pbe-n-kjpaw_psl.1.0.0.UPF
H 1.008 H.pbe-kjpaw_psl.1.0.0.UPF
C 12.011 C.pbe-n-kjpaw_psl.1.0.0.UPF

K_POINTS automatic
5 5 1  0 0 0

CELL_PARAMETERS angstrom
8.46831000000000 0.00000000000000 0.00000000000000
4.23415500000000 7.33377158712180 0.00000000000000
0.00000000000000 0.00000000000000 24.96566199000000

ATOMIC_POSITIONS angstrom
Pt 0.0000000000 0.0000000000 8.5000000000   0 0 0
Pt 2.8284271247 0.0000000000 8.5000000000   0 0 0
Pt 5.6568542495 0.0000000000 8.5000000000   0 0 0
Pt 1.4142135624 2.4494897428 8.5000000000   0 0 0
Pt 4.2426406871 2.4494897428 8.5000000000   0 0 0
Pt 7.0710678119 2.4494897428 8.5000000000   0 0 0
Pt 2.8284271247 4.8989794856 8.5000000000   0 0 0
Pt 5.6568542495 4.8989794856 8.5000000000   0 0 0
Pt 8.4852813742 4.8989794856 8.5000000000   0 0 0
Pt 1.4142135624 0.8164965809 10.8094010768   0 0 0
Pt 4.2426406871 0.8164965809 10.8094010768   0 0 0
Pt 7.0710678119 0.8164965809 10.8094010768   0 0 0
Pt 2.8284271247 3.2659863237 10.8094010768   0 0 0
Pt 5.6568542495 3.2659863237 10.8094010768   0 0 0
Pt 8.4852813742 3.2659863237 10.8094010768   0 0 0
Pt 4.2426406871 5.7154760665 10.8094010768   0 0 0
Pt 7.0710678119 5.7154760665 10.8094010768   0 0 0
Pt 9.8994949366 5.7154760665 10.8094010768   0 0 0
Pt 0.0138620866 1.6564455260 13.1112222085  
Pt 2.8302825286 1.6555342131 13.1086963853  
Pt 5.6566079778 1.6568186650 13.0883541738  
Pt 1.4229320175 4.1264690314 13.0804748079  
Pt 4.2429894695 4.1070312152 13.0899317390  
Pt 7.0705032422 4.1071397117 13.0892747564  
Pt 2.8521888460 6.5648144076 13.1231147697  
Pt 5.6569093220 6.5578489622 13.1274504369  
Pt 8.4631433573 6.5638900293 13.1199398338  
Pt -0.0255821150 0.0543255659 15.5800548217  
Pt 2.8684697409 0.0550585660 15.5782968149  
Pt 5.6555705790 0.0667728447 15.4350221964  
Pt 1.4220982946 2.6278202176 15.4281691655  
Pt 4.2737459969 2.5247874926 15.4160192520  
Pt 7.0383500465 2.5249708830 15.4166604545  
Pt 2.8442391630 4.9739073756 15.4342661959  
Pt 5.6562704104 4.9240214862 15.4227784265  
Pt 8.4676725398 4.9742803466 15.4333073820  
H 1.4220991019 1.4094796435 17.5796787261  
C 1.4214025440 1.0057741574 16.5669360297  

