&CONTROL
   tprnfor          = .true.
   pseudo_dir       = '/users/kbadger1/espresso/pseudo/pslibrary.1.0.0/pbe/PSEUDOPOTENTIALS/'
/
&SYSTEM
   ecutwfc          = 40
   ecutrho          = 410
   nosym            = .true.
   occupations      = 'smearing'
   degauss          = 0.001
   smearing         = 'marzari-vanderbilt'
   nspin            = 1
   input_dft        = 'beef-vdw'
   ntyp             = 3
   nat              = 38
   ibrav            = 0
/
&ELECTRONS
   mixing_mode      = 'local-TF'
/
&IONS
/
&CELL
/
&FCP
/
&RISM
/
ATOMIC_SPECIES
Pt 195.084 Pt.pbe-n-kjpaw_psl.1.0.0.UPF
C 12.011 C.pbe-n-kjpaw_psl.1.0.0.UPF
H 1.008 H.pbe-kjpaw_psl.1.0.0.UPF

K_POINTS automatic
5 5 1  0 0 0

CELL_PARAMETERS angstrom
8.48528137423857 0.00000000000000 0.00000000000000
4.24264068711929 7.34846922834953 0.00000000000000
0.00000000000000 0.00000000000000 23.92820323027551

ATOMIC_POSITIONS angstrom
Pt 0.0000000000 0.0000000000 8.5000000000   0 0 0
Pt 2.8284271247 0.0000000000 8.5000000000   0 0 0
Pt 5.6568542495 0.0000000000 8.5000000000   0 0 0
Pt 1.4142135624 2.4494897428 8.5000000000   0 0 0
Pt 4.2426406871 2.4494897428 8.5000000000   0 0 0
Pt 7.0710678119 2.4494897428 8.5000000000   0 0 0
Pt 2.8284271247 4.8989794856 8.5000000000   0 0 0
Pt 5.6568542495 4.8989794856 8.5000000000   0 0 0
Pt 8.4852813742 4.8989794856 8.5000000000   0 0 0
Pt 1.4142135624 0.8164965809 10.8094010768   0 0 0
Pt 4.2426406871 0.8164965809 10.8094010768   0 0 0
Pt 7.0710678119 0.8164965809 10.8094010768   0 0 0
Pt 2.8284271247 3.2659863237 10.8094010768   0 0 0
Pt 5.6568542495 3.2659863237 10.8094010768   0 0 0
Pt 8.4852813742 3.2659863237 10.8094010768   0 0 0
Pt 4.2426406871 5.7154760665 10.8094010768   0 0 0
Pt 7.0710678119 5.7154760665 10.8094010768   0 0 0
Pt 9.8994949366 5.7154760665 10.8094010768   0 0 0
Pt 0.0027870321 1.6576076944 13.1138562594  
Pt 2.8256379626 1.6575787800 13.1138955098  
Pt 5.6568923298 1.6594491977 13.0894487967  
Pt 1.4142106809 4.1346940112 13.0815061359  
Pt 4.2400370265 4.1140970884 13.0921356597  
Pt 7.0736868312 4.1141021391 13.0920928861  
Pt 2.8440257161 6.5762443935 13.1215862417  
Pt 5.6568569331 6.5698811524 13.1375729129  
Pt 8.4697232868 6.5762235516 13.1216253360  
Pt -0.0365262517 0.0561236092 15.5798825746  
Pt 2.8649613714 0.0560989594 15.5799091444  
Pt 5.6568949073 0.0720516824 15.4384673650  
Pt 1.4142081361 2.6474360795 15.4320394753  
Pt 4.2728975734 2.5292358453 15.4119680042  
Pt 7.0408424810 2.5292526659 15.4119364164  
Pt 2.8430473179 4.9867659842 15.4366115070  
Pt 5.6568499723 4.9337916398 15.4179700813  
Pt 8.4706373396 4.9867434174 15.4366333852  
C 1.4142329332 1.0143640353 16.5527477240  
H 1.4142963642 1.4092063140 17.5699478535  

