&CONTROL
   tprnfor          = .true.
   pseudo_dir       = '/users/kbadger1/espresso/pseudo/pslibrary.1.0.0/pbe/PSEUDOPOTENTIALS/'
/
&SYSTEM
   ecutwfc          = 40
   ecutrho          = 410
   nosym            = .true.
   occupations      = 'smearing'
   degauss          = 0.02
   smearing         = 'marzari-vanderbilt'
   nspin            = 1
   input_dft        = 'beef-vdw'
   ntyp             = 3
   nat              = 38
   ibrav            = 0
/
&ELECTRONS
   mixing_mode      = 'local-TF'
/
&IONS
/
&CELL
/
&FCP
/
&RISM
/
ATOMIC_SPECIES
Pt 195.084 Pt.pbe-n-kjpaw_psl.1.0.0.UPF
H 1.008 H.pbe-kjpaw_psl.1.0.0.UPF
C 12.011 C.pbe-n-kjpaw_psl.1.0.0.UPF

K_POINTS automatic
5 5 1  0 0 0

CELL_PARAMETERS angstrom
8.46831000000000 0.00000000000000 0.00000000000000
4.23415500000000 7.33377158712180 0.00000000000000
0.00000000000000 0.00000000000000 24.96566199000000

ATOMIC_POSITIONS angstrom
Pt 0.0000000000 0.0000000000 8.5000000000   0 0 0
Pt 2.8284271247 0.0000000000 8.5000000000   0 0 0
Pt 5.6568542495 0.0000000000 8.5000000000   0 0 0
Pt 1.4142135624 2.4494897428 8.5000000000   0 0 0
Pt 4.2426406871 2.4494897428 8.5000000000   0 0 0
Pt 7.0710678119 2.4494897428 8.5000000000   0 0 0
Pt 2.8284271247 4.8989794856 8.5000000000   0 0 0
Pt 5.6568542495 4.8989794856 8.5000000000   0 0 0
Pt 8.4852813742 4.8989794856 8.5000000000   0 0 0
Pt 1.4142135624 0.8164965809 10.8094010768   0 0 0
Pt 4.2426406871 0.8164965809 10.8094010768   0 0 0
Pt 7.0710678119 0.8164965809 10.8094010768   0 0 0
Pt 2.8284271247 3.2659863237 10.8094010768   0 0 0
Pt 5.6568542495 3.2659863237 10.8094010768   0 0 0
Pt 8.4852813742 3.2659863237 10.8094010768   0 0 0
Pt 4.2426406871 5.7154760665 10.8094010768   0 0 0
Pt 7.0710678119 5.7154760665 10.8094010768   0 0 0
Pt 9.8994949366 5.7154760665 10.8094010768   0 0 0
Pt 0.0269791388 1.6559032443 13.1423784799  
Pt 2.8207185571 1.6550841928 13.1395234191  
Pt 5.6581572812 1.6585532465 13.0855123020  
Pt 1.4245087514 4.0709362004 13.1480727191  
Pt 4.2423296795 4.1007520803 13.0830754371  
Pt 7.0740333912 4.1008603865 13.0824521555  
Pt 2.8477573403 6.5562772063 13.1200701621  
Pt 5.6585395691 6.5548199187 13.1177267137  
Pt 8.4712245150 6.5550738961 13.1169028754  
Pt -0.1073821546 -0.0136714954 15.5419526922  
Pt 2.9583772787 -0.0136466603 15.5386190482  
Pt 5.6593421550 0.0624961936 15.4348066094  
Pt 1.4252670035 2.6255197932 15.7077782776  
Pt 4.2732904649 2.5173975406 15.4108858526  
Pt 7.0452514742 2.5175960180 15.4116636863  
Pt 2.8388154098 4.9505075319 15.4263918490  
Pt 5.6594178253 4.9111153863 15.4014733332  
Pt 8.4798626318 4.9505517059 15.4254843951  
H 1.4266084558 2.5452930649 17.2715753199  
C 1.4266625358 0.7524507637 16.3094220583  

