&CONTROL
   tprnfor          = .true.
   pseudo_dir       = '/users/kbadger1/espresso/pseudo/pslibrary.1.0.0/pbe/PSEUDOPOTENTIALS/'
/
&SYSTEM
   ecutwfc          = 40
   ecutrho          = 410
   nosym            = .true.
   occupations      = 'smearing'
   degauss          = 0.001
   smearing         = 'marzari-vanderbilt'
   nspin            = 1
   input_dft        = 'beef-vdw'
   ntyp             = 3
   nat              = 38
   ibrav            = 0
/
&ELECTRONS
   conv_thr         = 1e-08
   mixing_mode      = 'local-TF'
/
&IONS
/
&CELL
/
&FCP
/
&RISM
/
ATOMIC_SPECIES
Pt 195.084 Pt.pbe-n-kjpaw_psl.1.0.0.UPF
C 12.011 C.pbe-n-kjpaw_psl.1.0.0.UPF
H 1.008 H.pbe-kjpaw_psl.1.0.0.UPF

K_POINTS automatic
5 5 1  0 0 0

CELL_PARAMETERS angstrom
8.48528137423857 0.00000000000000 0.00000000000000
4.24264068711929 7.34846922834953 0.00000000000000
0.00000000000000 0.00000000000000 23.92820323027551

ATOMIC_POSITIONS angstrom
Pt 0.0000000000 0.0000000000 8.5000000000   0 0 0
Pt 2.8284271247 0.0000000000 8.5000000000   0 0 0
Pt 5.6568542495 0.0000000000 8.5000000000   0 0 0
Pt 1.4142135624 2.4494897428 8.5000000000   0 0 0
Pt 4.2426406871 2.4494897428 8.5000000000   0 0 0
Pt 7.0710678119 2.4494897428 8.5000000000   0 0 0
Pt 2.8284271247 4.8989794856 8.5000000000   0 0 0
Pt 5.6568542495 4.8989794856 8.5000000000   0 0 0
Pt 8.4852813742 4.8989794856 8.5000000000   0 0 0
Pt 1.4142135624 0.8164965809 10.8094010768   0 0 0
Pt 4.2426406871 0.8164965809 10.8094010768   0 0 0
Pt 7.0710678119 0.8164965809 10.8094010768   0 0 0
Pt 2.8284271247 3.2659863237 10.8094010768   0 0 0
Pt 5.6568542495 3.2659863237 10.8094010768   0 0 0
Pt 8.4852813742 3.2659863237 10.8094010768   0 0 0
Pt 4.2426406871 5.7154760665 10.8094010768   0 0 0
Pt 7.0710678119 5.7154760665 10.8094010768   0 0 0
Pt 9.8994949366 5.7154760665 10.8094010768   0 0 0
Pt 0.0187896756 1.6448458314 13.1517676311  
Pt 2.8096386940 1.6448508164 13.1517629954  
Pt 5.6568582892 1.6538802295 13.0847060574  
Pt 1.4142169854 4.0644479961 13.1464161836  
Pt 4.2382025907 4.0978811269 13.0793115707  
Pt 7.0755054654 4.0978791952 13.0793054136  
Pt 2.8393897839 6.5589890125 13.1188697481  
Pt 5.6568580190 6.5593120797 13.1273124768  
Pt 8.4743224466 6.5589874586 13.1188533254  
Pt -0.1299271680 -0.0432996380 15.5522475542  
Pt 2.9583546567 -0.0433037302 15.5522308305  
Pt 5.6568533556 0.0444317763 15.4331796994  
Pt 1.4142025505 2.6117954747 15.7187000727  
Pt 4.2667009698 2.5008296199 15.4005300927  
Pt 7.0470199340 2.5008294226 15.4005287514  
Pt 2.8313073272 4.9356857826 15.4205273041  
Pt 5.6568604626 4.9000594117 15.3891299233  
Pt 8.4823987855 4.9356866145 15.4205292957  
C 1.4142169309 0.7354957236 16.2745377062  
H 1.4141901862 2.5821808680 17.2802062816  

