&CONTROL
   tprnfor          = .true.
   pseudo_dir       = '/users/kbadger1/espresso/pseudo/pslibrary.1.0.0/pbe/PSEUDOPOTENTIALS/'
/
&SYSTEM
   ecutwfc          = 40
   ecutrho          = 410
   nosym            = .true.
   occupations      = 'smearing'
   degauss          = 0.02
   smearing         = 'marzari-vanderbilt'
   nspin            = 1
   input_dft        = 'beef-vdw'
   ntyp             = 3
   nat              = 39
   ibrav            = 0
/
&ELECTRONS
   mixing_mode      = 'local-TF'
/
&IONS
/
&CELL
/
&FCP
/
&RISM
/
ATOMIC_SPECIES
Pt 195.084 Pt.pbe-n-kjpaw_psl.1.0.0.UPF
O 15.999 O.pbe-nl-kjpaw_psl.1.0.0.UPF
H 1.008 H.pbe-kjpaw_psl.1.0.0.UPF

K_POINTS automatic
5 5 1  0 0 0

CELL_PARAMETERS angstrom
8.48528137423857 0.00000000000000 0.00000000000000
4.24264068711929 7.34846922834953 0.00000000000000
0.00000000000000 0.00000000000000 23.92820323027551

ATOMIC_POSITIONS angstrom
Pt 0.0000000000 0.0000000000 8.5000000000   0 0 0
Pt 2.8284271247 0.0000000000 8.5000000000   0 0 0
Pt 5.6568542495 0.0000000000 8.5000000000   0 0 0
Pt 1.4142135624 2.4494897428 8.5000000000   0 0 0
Pt 4.2426406871 2.4494897428 8.5000000000   0 0 0
Pt 7.0710678119 2.4494897428 8.5000000000   0 0 0
Pt 2.8284271247 4.8989794856 8.5000000000   0 0 0
Pt 5.6568542495 4.8989794856 8.5000000000   0 0 0
Pt 8.4852813742 4.8989794856 8.5000000000   0 0 0
Pt 1.4142135624 0.8164965809 10.8094010768   0 0 0
Pt 4.2426406871 0.8164965809 10.8094010768   0 0 0
Pt 7.0710678119 0.8164965809 10.8094010768   0 0 0
Pt 2.8284271247 3.2659863237 10.8094010768   0 0 0
Pt 5.6568542495 3.2659863237 10.8094010768   0 0 0
Pt 8.4852813742 3.2659863237 10.8094010768   0 0 0
Pt 4.2426406871 5.7154760665 10.8094010768   0 0 0
Pt 7.0710678119 5.7154760665 10.8094010768   0 0 0
Pt 9.8994949366 5.7154760665 10.8094010768   0 0 0
Pt -0.0169118930 1.6505462554 13.0762650301  
Pt 2.8242479938 1.6610868344 13.1205321544  
Pt 5.6314092121 1.6521042996 13.1199647526  
Pt 1.3956321038 4.1050819483 13.0890177897  
Pt 4.2181498611 4.0853717099 13.1328991665  
Pt 7.0535270694 4.1035353463 13.0840739260  
Pt 2.7955733333 6.5605399695 13.1053992839  
Pt 5.6346630777 6.5516513695 13.0723870591  
Pt 8.4747132775 6.5580838693 13.1026842635  
Pt -0.0422711746 0.0472360674 15.4156382266  
Pt 2.7631817908 0.0291340956 15.3950134549  
Pt 5.6107046742 0.0445908013 15.5121799528  
Pt 1.3553942428 2.4975767890 15.3989754091  
Pt 4.2091499725 2.5194191457 15.5368264023  
Pt 7.0498942215 2.5002142211 15.3958203734  
Pt 2.7756243934 4.9682367186 15.4156452870  
Pt 5.6215001199 4.9629843406 15.4088386262  
Pt 8.4401505750 4.9456519358 15.4167615156  
O 4.1744471665 2.3595081403 17.5543173869  
H 5.0461921076 2.6349885497 17.8841029112  
H 5.3408218476 0.3446206963 17.0175878193  

