&CONTROL
   tprnfor          = .true.
   pseudo_dir       = '/users/kbadger1/espresso/pseudo/pslibrary.1.0.0/pbe/PSEUDOPOTENTIALS/'
/
&SYSTEM
   ecutwfc          = 40
   ecutrho          = 410
   nosym            = .true.
   occupations      = 'smearing'
   degauss          = 0.02
   smearing         = 'marzari-vanderbilt'
   nspin            = 1
   input_dft        = 'beef-vdw'
   ntyp             = 3
   nat              = 39
   ibrav            = 0
/
&ELECTRONS
   conv_thr         = 1e-08
   mixing_mode      = 'local-TF'
/
&IONS
/
&CELL
/
&FCP
/
&RISM
/
ATOMIC_SPECIES
Pt 195.084 Pt.pbe-n-kjpaw_psl.1.0.0.UPF
O 15.999 O.pbe-nl-kjpaw_psl.1.0.0.UPF
H 1.008 H.pbe-kjpaw_psl.1.0.0.UPF

K_POINTS automatic
5 5 1  0 0 0

CELL_PARAMETERS angstrom
8.48528137423857 0.00000000000000 0.00000000000000
4.24264068711929 7.34846922834953 0.00000000000000
0.00000000000000 0.00000000000000 23.92820323027551

ATOMIC_POSITIONS angstrom
Pt 0.0000000000 0.0000000000 8.5000000000   0 0 0
Pt 2.8284271247 0.0000000000 8.5000000000   0 0 0
Pt 5.6568542495 0.0000000000 8.5000000000   0 0 0
Pt 1.4142135624 2.4494897428 8.5000000000   0 0 0
Pt 4.2426406871 2.4494897428 8.5000000000   0 0 0
Pt 7.0710678119 2.4494897428 8.5000000000   0 0 0
Pt 2.8284271247 4.8989794856 8.5000000000   0 0 0
Pt 5.6568542495 4.8989794856 8.5000000000   0 0 0
Pt 8.4852813742 4.8989794856 8.5000000000   0 0 0
Pt 1.4142135624 0.8164965809 10.8094010768   0 0 0
Pt 4.2426406871 0.8164965809 10.8094010768   0 0 0
Pt 7.0710678119 0.8164965809 10.8094010768   0 0 0
Pt 2.8284271247 3.2659863237 10.8094010768   0 0 0
Pt 5.6568542495 3.2659863237 10.8094010768   0 0 0
Pt 8.4852813742 3.2659863237 10.8094010768   0 0 0
Pt 4.2426406871 5.7154760665 10.8094010768   0 0 0
Pt 7.0710678119 5.7154760665 10.8094010768   0 0 0
Pt 9.8994949366 5.7154760665 10.8094010768   0 0 0
Pt -0.0020372608 1.6319036702 13.0762147101  
Pt 2.8413999832 1.6375230773 13.1140871825  
Pt 5.6398284122 1.6271007377 13.1552200041  
Pt 1.4169346066 4.0834863076 13.0831437384  
Pt 4.2445824029 4.0689290255 13.1104675005  
Pt 7.0745153472 4.0795459408 13.0823383714  
Pt 2.8206810321 6.5430281132 13.0942774941  
Pt 5.6588324153 6.5344015423 13.0728818403  
Pt 8.4985135370 6.5384799609 13.1067705204  
Pt 0.0162475915 -0.0052011235 15.4113174208  
Pt 2.8263872233 -0.0201402843 15.3981530751  
Pt 5.6758993075 -0.0256473913 15.5394093485  
Pt 1.4051046251 2.4438464711 15.3903319676  
Pt 4.2748695438 2.4529837757 15.5233679990  
Pt 7.0990319708 2.4481844862 15.4079852898  
Pt 2.8352631713 4.9106861337 15.3918235009  
Pt 5.6775810230 4.9136819097 15.4014737293  
Pt 8.4893428164 4.8909442481 15.4120961184  
O 4.0588023075 2.5013689073 17.5235328393  
H 4.7222328659 3.1255562216 17.8650123423  
H 5.6854627894 -0.0892781571 17.0933777326  

