&CONTROL
   tprnfor          = .true.
   pseudo_dir       = '/users/kbadger1/espresso/pseudo/pslibrary.1.0.0/pbe/PSEUDOPOTENTIALS/'
/
&SYSTEM
   ecutwfc          = 40
   ecutrho          = 410
   nosym            = .true.
   occupations      = 'smearing'
   degauss          = 0.02
   smearing         = 'marzari-vanderbilt'
   nspin            = 1
   input_dft        = 'beef-vdw'
   ntyp             = 2
   nat              = 37
   ibrav            = 0
/
&ELECTRONS
   mixing_mode      = 'local-TF'
/
&IONS
/
&CELL
/
&FCP
/
&RISM
/
ATOMIC_SPECIES
Pt 195.084 Pt.pbe-n-kjpaw_psl.1.0.0.UPF
H 1.008 H.pbe-kjpaw_psl.1.0.0.UPF

K_POINTS automatic
5 5 1  0 0 0

CELL_PARAMETERS angstrom
8.48528137423857 0.00000000000000 0.00000000000000
4.24264068711929 7.34846922834953 0.00000000000000
0.00000000000000 0.00000000000000 23.92820323027551

ATOMIC_POSITIONS angstrom
Pt 0.0000000000 0.0000000000 8.5000000000   0 0 0
Pt 2.8284271247 0.0000000000 8.5000000000   0 0 0
Pt 5.6568542495 0.0000000000 8.5000000000   0 0 0
Pt 1.4142135624 2.4494897428 8.5000000000   0 0 0
Pt 4.2426406871 2.4494897428 8.5000000000   0 0 0
Pt 7.0710678119 2.4494897428 8.5000000000   0 0 0
Pt 2.8284271247 4.8989794856 8.5000000000   0 0 0
Pt 5.6568542495 4.8989794856 8.5000000000   0 0 0
Pt 8.4852813742 4.8989794856 8.5000000000   0 0 0
Pt 1.4142135624 0.8164965809 10.8094010768   0 0 0
Pt 4.2426406871 0.8164965809 10.8094010768   0 0 0
Pt 7.0710678119 0.8164965809 10.8094010768   0 0 0
Pt 2.8284271247 3.2659863237 10.8094010768   0 0 0
Pt 5.6568542495 3.2659863237 10.8094010768   0 0 0
Pt 8.4852813742 3.2659863237 10.8094010768   0 0 0
Pt 4.2426406871 5.7154760665 10.8094010768   0 0 0
Pt 7.0710678119 5.7154760665 10.8094010768   0 0 0
Pt 9.8994949366 5.7154760665 10.8094010768   0 0 0
Pt 0.0049445998 1.6129884880 13.1010436923  
Pt 2.8232922987 1.6131242084 13.1011666915  
Pt 5.6567483723 1.6122295577 13.0866815505  
Pt 1.4142228385 4.0344644388 13.1244831007  
Pt 4.2414147847 4.0605974883 13.0901667787  
Pt 7.0721958212 4.0605843028 13.0902500229  
Pt 2.8267614701 6.5038607847 13.0851307541  
Pt 5.6568013036 6.5109064446 13.0885856237  
Pt 8.4868856557 6.5039067954 13.0851046257  
Pt -0.0125470070 -0.0608666801 15.4066159927  
Pt 2.8406305389 -0.0607223682 15.4065248628  
Pt 5.6566772114 -0.0493792727 15.4132540721  
Pt 1.4137816763 2.3797389136 15.5316927879  
Pt 4.2470185102 2.3996648475 15.4114423301  
Pt 7.0661779286 2.3996438695 15.4113928920  
Pt 2.8264764611 4.8501442748 15.4183800929  
Pt 5.6566571670 4.8481485099 15.4116132562  
Pt 8.4869690432 4.8502587803 15.4183622674  
H 1.4106938007 1.9887026787 17.0401666545  

