&CONTROL
   tprnfor          = .true.
   pseudo_dir       = '/users/kbadger1/espresso/pseudo/pslibrary.1.0.0/pbe/PSEUDOPOTENTIALS/'
/
&SYSTEM
   ecutwfc          = 40
   ecutrho          = 410
   nosym            = .true.
   occupations      = 'smearing'
   degauss          = 0.02
   smearing         = 'marzari-vanderbilt'
   nspin            = 1
   input_dft        = 'beef-vdw'
   ntyp             = 2
   nat              = 37
   ibrav            = 0
/
&ELECTRONS
   conv_thr         = 1e-08
   mixing_mode      = 'local-TF'
/
&IONS
/
&CELL
/
&FCP
/
&RISM
/
ATOMIC_SPECIES
Pt 195.084 Pt.pbe-n-kjpaw_psl.1.0.0.UPF
H 1.008 H.pbe-kjpaw_psl.1.0.0.UPF

K_POINTS automatic
5 5 1  0 0 0

CELL_PARAMETERS angstrom
8.48528137423857 0.00000000000000 0.00000000000000
4.24264068711929 7.34846922834953 0.00000000000000
0.00000000000000 0.00000000000000 23.92820323027551

ATOMIC_POSITIONS angstrom
Pt 0.0000000000 0.0000000000 8.5000000000   0 0 0
Pt 2.8284271247 0.0000000000 8.5000000000   0 0 0
Pt 5.6568542495 0.0000000000 8.5000000000   0 0 0
Pt 1.4142135624 2.4494897428 8.5000000000   0 0 0
Pt 4.2426406871 2.4494897428 8.5000000000   0 0 0
Pt 7.0710678119 2.4494897428 8.5000000000   0 0 0
Pt 2.8284271247 4.8989794856 8.5000000000   0 0 0
Pt 5.6568542495 4.8989794856 8.5000000000   0 0 0
Pt 8.4852813742 4.8989794856 8.5000000000   0 0 0
Pt 1.4142135624 0.8164965809 10.8094010768   0 0 0
Pt 4.2426406871 0.8164965809 10.8094010768   0 0 0
Pt 7.0710678119 0.8164965809 10.8094010768   0 0 0
Pt 2.8284271247 3.2659863237 10.8094010768   0 0 0
Pt 5.6568542495 3.2659863237 10.8094010768   0 0 0
Pt 8.4852813742 3.2659863237 10.8094010768   0 0 0
Pt 4.2426406871 5.7154760665 10.8094010768   0 0 0
Pt 7.0710678119 5.7154760665 10.8094010768   0 0 0
Pt 9.8994949366 5.7154760665 10.8094010768   0 0 0
Pt 0.0046474867 1.6132819582 13.1022879854  
Pt 2.8234948371 1.6133674734 13.1024670014  
Pt 5.6567230927 1.6122419837 13.0883193113  
Pt 1.4141720800 4.0352575107 13.1258626208  
Pt 4.2414770868 4.0609387596 13.0914050174  
Pt 7.0720446770 4.0609586566 13.0912682763  
Pt 2.8268094079 6.5042341355 13.0865319105  
Pt 5.6567490407 6.5110902017 13.0902498063  
Pt 8.4867300500 6.5042841758 13.0865217060  
Pt -0.0125738681 -0.0601883516 15.4091393215  
Pt 2.8405720505 -0.0600524469 15.4091796322  
Pt 5.6566495402 -0.0493687106 15.4161056921  
Pt 1.4137056858 2.3811235964 15.5321131896  
Pt 4.2471443840 2.4005012540 15.4140481076  
Pt 7.0658949188 2.4005620832 15.4139246592  
Pt 2.8268003573 4.8511470832 15.4210577134  
Pt 5.6567064667 4.8481898200 15.4145521701  
Pt 8.4864453161 4.8511846040 15.4209991341  
H 1.4100594590 1.9892027861 17.0403388136  

