&CONTROL
   tprnfor          = .true.
   pseudo_dir       = '/users/kbadger1/espresso/pseudo/pslibrary.1.0.0/pbe/PSEUDOPOTENTIALS/'
/
&SYSTEM
   ecutwfc          = 40
   ecutrho          = 410
   nosym            = .true.
   occupations      = 'smearing'
   degauss          = 0.02
   smearing         = 'marzari-vanderbilt'
   nspin            = 1
   input_dft        = 'beef-vdw'
   ntyp             = 2
   nat              = 37
   ibrav            = 0
/
&ELECTRONS
   mixing_mode      = 'local-TF'
/
&IONS
/
&CELL
/
&FCP
/
&RISM
/
ATOMIC_SPECIES
Pt 195.084 Pt.pbe-n-kjpaw_psl.1.0.0.UPF
H 1.008 H.pbe-kjpaw_psl.1.0.0.UPF

K_POINTS automatic
5 5 1  0 0 0

CELL_PARAMETERS angstrom
8.46831000000000 0.00000000000000 0.00000000000000
4.23415500000000 7.33377158712180 0.00000000000000
0.00000000000000 0.00000000000000 24.96566199000000

ATOMIC_POSITIONS angstrom
Pt 0.0000000000 0.0000000000 8.5000000000   0 0 0
Pt 2.8284271247 0.0000000000 8.5000000000   0 0 0
Pt 5.6568542495 0.0000000000 8.5000000000   0 0 0
Pt 1.4142135624 2.4494897428 8.5000000000   0 0 0
Pt 4.2426406871 2.4494897428 8.5000000000   0 0 0
Pt 7.0710678119 2.4494897428 8.5000000000   0 0 0
Pt 2.8284271247 4.8989794856 8.5000000000   0 0 0
Pt 5.6568542495 4.8989794856 8.5000000000   0 0 0
Pt 8.4852813742 4.8989794856 8.5000000000   0 0 0
Pt 1.4142135624 0.8164965809 10.8094010768   0 0 0
Pt 4.2426406871 0.8164965809 10.8094010768   0 0 0
Pt 7.0710678119 0.8164965809 10.8094010768   0 0 0
Pt 2.8284271247 3.2659863237 10.8094010768   0 0 0
Pt 5.6568542495 3.2659863237 10.8094010768   0 0 0
Pt 8.4852813742 3.2659863237 10.8094010768   0 0 0
Pt 4.2426406871 5.7154760665 10.8094010768   0 0 0
Pt 7.0710678119 5.7154760665 10.8094010768   0 0 0
Pt 9.8994949366 5.7154760665 10.8094010768   0 0 0
Pt 0.0169411150 1.6182513969 13.1093774875  
Pt 2.8298959600 1.6172078504 13.1066290701  
Pt 5.6579370028 1.6165531382 13.0908542049  
Pt 1.4241878226 4.0362720764 13.1319397118  
Pt 4.2451256490 4.0606306586 13.0947187426  
Pt 7.0708936827 4.0609642518 13.0938366170  
Pt 2.8348593013 6.4995094828 13.0956380037  
Pt 5.6584739847 6.5054607464 13.0964182572  
Pt 8.4838511922 6.4986802360 13.0920827467  
Pt 0.0019065513 -0.0505409497 15.4197505349  
Pt 2.8486863645 -0.0503823444 15.4178745140  
Pt 5.6588318563 -0.0393208498 15.4250485659  
Pt 1.4250827658 2.3849634914 15.5440046187  
Pt 4.2524641099 2.4049204544 15.4212219442  
Pt 7.0656710524 2.4051923021 15.4217646511  
Pt 2.8349833791 4.8496035740 15.4308429527  
Pt 5.6593079723 4.8473938756 15.4219706018  
Pt 8.4832197608 4.8499897625 15.4298271179  
H 1.4256509089 1.9948941667 17.0525958254  

