&CONTROL
   tprnfor          = .true.
   pseudo_dir       = '/users/kbadger1/espresso/pseudo/pslibrary.1.0.0/pbe/PSEUDOPOTENTIALS/'
/
&SYSTEM
   ecutwfc          = 40
   ecutrho          = 410
   nosym            = .true.
   occupations      = 'smearing'
   degauss          = 0.001
   smearing         = 'marzari-vanderbilt'
   nspin            = 1
   input_dft        = 'beef-vdw'
   ntyp             = 3
   nat              = 39
   ibrav            = 0
/
&ELECTRONS
   mixing_mode      = 'local-TF'
/
&IONS
/
&CELL
/
&FCP
/
&RISM
/
ATOMIC_SPECIES
Pt 195.084 Pt.pbe-n-kjpaw_psl.1.0.0.UPF
O 15.999 O.pbe-nl-kjpaw_psl.1.0.0.UPF
H 1.008 H.pbe-kjpaw_psl.1.0.0.UPF

K_POINTS automatic
5 5 1  0 0 0

CELL_PARAMETERS angstrom
8.48528137423857 0.00000000000000 0.00000000000000
4.24264068711929 7.34846922834953 0.00000000000000
0.00000000000000 0.00000000000000 23.92820323027551

ATOMIC_POSITIONS angstrom
Pt 0.0000000000 0.0000000000 8.5000000000   0 0 0
Pt 2.8284271247 0.0000000000 8.5000000000   0 0 0
Pt 5.6568542495 0.0000000000 8.5000000000   0 0 0
Pt 1.4142135624 2.4494897428 8.5000000000   0 0 0
Pt 4.2426406871 2.4494897428 8.5000000000   0 0 0
Pt 7.0710678119 2.4494897428 8.5000000000   0 0 0
Pt 2.8284271247 4.8989794856 8.5000000000   0 0 0
Pt 5.6568542495 4.8989794856 8.5000000000   0 0 0
Pt 8.4852813742 4.8989794856 8.5000000000   0 0 0
Pt 1.4142135624 0.8164965809 10.8094010768   0 0 0
Pt 4.2426406871 0.8164965809 10.8094010768   0 0 0
Pt 7.0710678119 0.8164965809 10.8094010768   0 0 0
Pt 2.8284271247 3.2659863237 10.8094010768   0 0 0
Pt 5.6568542495 3.2659863237 10.8094010768   0 0 0
Pt 8.4852813742 3.2659863237 10.8094010768   0 0 0
Pt 4.2426406871 5.7154760665 10.8094010768   0 0 0
Pt 7.0710678119 5.7154760665 10.8094010768   0 0 0
Pt 9.8994949366 5.7154760665 10.8094010768   0 0 0
Pt -0.0663320497 1.6654626872 13.0987796948  
Pt 2.7642372086 1.6712398913 13.1129671094  
Pt 5.5869565640 1.6673434995 13.1086850672  
Pt 1.3441432543 4.1177723438 13.1085463940  
Pt 4.1720063942 4.1076361262 13.1192598845  
Pt 7.0016786280 4.1178091219 13.1051033920  
Pt 2.7636801177 6.5633302336 13.0982353471  
Pt 5.5861364156 6.5648577872 13.0987730296  
Pt 8.4155774171 6.5653869620 13.1028871740  
Pt -0.1388692266 0.0685725720 15.4424431117  
Pt 2.6842450791 0.0560088229 15.4318344896  
Pt 5.5246455133 0.0543369673 15.4310213915  
Pt 1.2627740733 2.5191658735 15.4405640457  
Pt 4.0929545638 2.5238094570 15.4615983204  
Pt 6.9441530309 2.5210675637 15.4330821062  
Pt 2.6835733658 4.9787567610 15.4461110421  
Pt 5.5245806572 4.9753935924 15.4426012011  
Pt 8.3455274504 4.9682692126 15.4492290881  
O 4.2757933207 2.2594527887 18.0047009287  
H 4.9593217732 2.9138507807 18.2181251050  
H 4.7432501053 1.4080039563 17.9833328675  

