&CONTROL
   tprnfor          = .true.
   pseudo_dir       = '/users/kbadger1/espresso/pseudo/pslibrary.1.0.0/pbe/PSEUDOPOTENTIALS/'
/
&SYSTEM
   ecutwfc          = 40
   ecutrho          = 410
   nosym            = .true.
   occupations      = 'smearing'
   degauss          = 0.001
   smearing         = 'marzari-vanderbilt'
   nspin            = 1
   input_dft        = 'beef-vdw'
   ntyp             = 3
   nat              = 38
   ibrav            = 0
/
&ELECTRONS
   conv_thr         = 1e-08
   mixing_mode      = 'local-TF'
/
&IONS
/
&CELL
/
&FCP
/
&RISM
/
ATOMIC_SPECIES
Pt 195.084 Pt.pbe-n-kjpaw_psl.1.0.0.UPF
C 12.011 C.pbe-n-kjpaw_psl.1.0.0.UPF
H 1.008 H.pbe-kjpaw_psl.1.0.0.UPF

K_POINTS automatic
5 5 1  0 0 0

CELL_PARAMETERS angstrom
8.48528137423857 0.00000000000000 0.00000000000000
4.24264068711929 7.34846922834953 0.00000000000000
0.00000000000000 0.00000000000000 23.92820323027551

ATOMIC_POSITIONS angstrom
Pt 0.0000000000 0.0000000000 8.5000000000   0 0 0
Pt 2.8284271247 0.0000000000 8.5000000000   0 0 0
Pt 5.6568542495 0.0000000000 8.5000000000   0 0 0
Pt 1.4142135624 2.4494897428 8.5000000000   0 0 0
Pt 4.2426406871 2.4494897428 8.5000000000   0 0 0
Pt 7.0710678119 2.4494897428 8.5000000000   0 0 0
Pt 2.8284271247 4.8989794856 8.5000000000   0 0 0
Pt 5.6568542495 4.8989794856 8.5000000000   0 0 0
Pt 8.4852813742 4.8989794856 8.5000000000   0 0 0
Pt 1.4142135624 0.8164965809 10.8094010768   0 0 0
Pt 4.2426406871 0.8164965809 10.8094010768   0 0 0
Pt 7.0710678119 0.8164965809 10.8094010768   0 0 0
Pt 2.8284271247 3.2659863237 10.8094010768   0 0 0
Pt 5.6568542495 3.2659863237 10.8094010768   0 0 0
Pt 8.4852813742 3.2659863237 10.8094010768   0 0 0
Pt 4.2426406871 5.7154760665 10.8094010768   0 0 0
Pt 7.0710678119 5.7154760665 10.8094010768   0 0 0
Pt 9.8994949366 5.7154760665 10.8094010768   0 0 0
Pt 0.0174451531 1.6535585607 13.1490861929  
Pt 2.8109667251 1.6535550239 13.1490823477  
Pt 5.6568502310 1.6615327162 13.0853607968  
Pt 1.4142015904 4.0729734628 13.1509178606  
Pt 4.2380162955 4.1060656118 13.0798131537  
Pt 7.0756813812 4.1060634452 13.0798167025  
Pt 2.8391965546 6.5672250940 13.1192504357  
Pt 5.6568438301 6.5678442612 13.1248549406  
Pt 8.4744976327 6.5672187245 13.1192486146  
Pt -0.1273996405 -0.0224739286 15.5485150218  
Pt 2.9557905158 -0.0224763292 15.5484981891  
Pt 5.6568370656 0.0623342495 15.4356404732  
Pt 1.4142056353 2.6299516759 15.7109708498  
Pt 4.2674351997 2.5188779539 15.4014854710  
Pt 7.0462386900 2.5188823216 15.4015009199  
Pt 2.8319678972 4.9553218867 15.4237516251  
Pt 5.6568375225 4.9174951791 15.3884232244  
Pt 8.4817087252 4.9553203055 15.4237566132  
C 1.4141976234 0.7534925323 16.2816032979  
H 1.4142312255 2.5276804587 17.2733308316  

