&CONTROL
   tprnfor          = .true.
   pseudo_dir       = '/users/kbadger1/espresso/pseudo/pslibrary.1.0.0/pbe/PSEUDOPOTENTIALS/'
/
&SYSTEM
   ecutwfc          = 40
   ecutrho          = 410
   nosym            = .true.
   occupations      = 'smearing'
   degauss          = 0.02
   smearing         = 'marzari-vanderbilt'
   nspin            = 1
   input_dft        = 'beef-vdw'
   ntyp             = 2
   nat              = 37
   ibrav            = 0
/
&ELECTRONS
   mixing_mode      = 'local-TF'
/
&IONS
/
&CELL
/
&FCP
/
&RISM
/
ATOMIC_SPECIES
Pt 195.084 Pt.pbe-n-kjpaw_psl.1.0.0.UPF
H 1.008 H.pbe-kjpaw_psl.1.0.0.UPF

K_POINTS automatic
5 5 1  0 0 0

CELL_PARAMETERS angstrom
8.46831000000000 0.00000000000000 0.00000000000000
4.23415500000000 7.33377158712180 0.00000000000000
0.00000000000000 0.00000000000000 24.96566199000000

ATOMIC_POSITIONS angstrom
Pt 0.0000000000 0.0000000000 8.5000000000   0 0 0
Pt 2.8284271247 0.0000000000 8.5000000000   0 0 0
Pt 5.6568542495 0.0000000000 8.5000000000   0 0 0
Pt 1.4142135624 2.4494897428 8.5000000000   0 0 0
Pt 4.2426406871 2.4494897428 8.5000000000   0 0 0
Pt 7.0710678119 2.4494897428 8.5000000000   0 0 0
Pt 2.8284271247 4.8989794856 8.5000000000   0 0 0
Pt 5.6568542495 4.8989794856 8.5000000000   0 0 0
Pt 8.4852813742 4.8989794856 8.5000000000   0 0 0
Pt 1.4142135624 0.8164965809 10.8094010768   0 0 0
Pt 4.2426406871 0.8164965809 10.8094010768   0 0 0
Pt 7.0710678119 0.8164965809 10.8094010768   0 0 0
Pt 2.8284271247 3.2659863237 10.8094010768   0 0 0
Pt 5.6568542495 3.2659863237 10.8094010768   0 0 0
Pt 8.4852813742 3.2659863237 10.8094010768   0 0 0
Pt 4.2426406871 5.7154760665 10.8094010768   0 0 0
Pt 7.0710678119 5.7154760665 10.8094010768   0 0 0
Pt 9.8994949366 5.7154760665 10.8094010768   0 0 0
Pt 0.0218904937 1.6427143870 13.1062606415  
Pt 2.8350473976 1.6370956099 13.1173039432  
Pt 5.6611073617 1.6393428496 13.0945211939  
Pt 1.4264779173 4.0764248042 13.1083484733  
Pt 4.2500045459 4.0833344361 13.0944808091  
Pt 7.0737936656 4.0842739083 13.0931500977  
Pt 2.8383237465 6.5280942340 13.0916255803  
Pt 5.6674352406 6.5317329912 13.1063513412  
Pt 8.4774751345 6.5312306770 13.1084269607  
Pt 0.0082771268 0.0052902747 15.4203103505  
Pt 2.8613227635 -0.0028743656 15.5017419653  
Pt 5.6775859269 0.0125235488 15.4265613634  
Pt 1.4278283934 2.4800853339 15.5017276129  
Pt 4.2935929127 2.4794225452 15.4416934326  
Pt 7.0834626688 2.4589554317 15.4280284102  
Pt 2.8492730874 4.9113818616 15.4264256436  
Pt 5.6708146372 4.9056184963 15.4281164541  
Pt 8.4940069143 4.9043960649 15.4300629470  
H 2.4923189639 1.4392790074 16.4621437206  

