&CONTROL
   tprnfor          = .true.
   pseudo_dir       = '/users/kbadger1/espresso/pseudo/pslibrary.1.0.0/pbe/PSEUDOPOTENTIALS/'
/
&SYSTEM
   ecutwfc          = 40
   ecutrho          = 410
   nosym            = .true.
   occupations      = 'smearing'
   degauss          = 0.02
   smearing         = 'marzari-vanderbilt'
   nspin            = 1
   input_dft        = 'beef-vdw'
   ntyp             = 2
   nat              = 37
   ibrav            = 0
/
&ELECTRONS
   conv_thr         = 1e-08
   mixing_mode      = 'local-TF'
/
&IONS
/
&CELL
/
&FCP
/
&RISM
/
ATOMIC_SPECIES
Pt 195.084 Pt.pbe-n-kjpaw_psl.1.0.0.UPF
H 1.008 H.pbe-kjpaw_psl.1.0.0.UPF

K_POINTS automatic
5 5 1  0 0 0

CELL_PARAMETERS angstrom
8.48528137423857 0.00000000000000 0.00000000000000
4.24264068711929 7.34846922834953 0.00000000000000
0.00000000000000 0.00000000000000 23.92820323027551

ATOMIC_POSITIONS angstrom
Pt 0.0000000000 0.0000000000 8.5000000000   0 0 0
Pt 2.8284271247 0.0000000000 8.5000000000   0 0 0
Pt 5.6568542495 0.0000000000 8.5000000000   0 0 0
Pt 1.4142135624 2.4494897428 8.5000000000   0 0 0
Pt 4.2426406871 2.4494897428 8.5000000000   0 0 0
Pt 7.0710678119 2.4494897428 8.5000000000   0 0 0
Pt 2.8284271247 4.8989794856 8.5000000000   0 0 0
Pt 5.6568542495 4.8989794856 8.5000000000   0 0 0
Pt 8.4852813742 4.8989794856 8.5000000000   0 0 0
Pt 1.4142135624 0.8164965809 10.8094010768   0 0 0
Pt 4.2426406871 0.8164965809 10.8094010768   0 0 0
Pt 7.0710678119 0.8164965809 10.8094010768   0 0 0
Pt 2.8284271247 3.2659863237 10.8094010768   0 0 0
Pt 5.6568542495 3.2659863237 10.8094010768   0 0 0
Pt 8.4852813742 3.2659863237 10.8094010768   0 0 0
Pt 4.2426406871 5.7154760665 10.8094010768   0 0 0
Pt 7.0710678119 5.7154760665 10.8094010768   0 0 0
Pt 9.8994949366 5.7154760665 10.8094010768   0 0 0
Pt 0.0015441591 1.6164809048 13.0981838717  
Pt 2.8268925575 1.6166338516 13.0980759113  
Pt 5.6569091633 1.6173055110 13.0878394516  
Pt 1.4144201477 4.0377541318 13.1285528586  
Pt 4.2420741284 4.0674718728 13.0900528332  
Pt 7.0718246956 4.0675027967 13.0899458996  
Pt 2.8275960441 6.5107831967 13.0891979218  
Pt 5.6568299748 6.5185047174 13.0937592333  
Pt 8.4865290216 6.5106776839 13.0887600089  
Pt -0.0201666003 -0.0492180361 15.4197406991  
Pt 2.8490087709 -0.0490500201 15.4184959055  
Pt 5.6569753107 -0.0324410384 15.4188495254  
Pt 1.4137278758 2.4091576385 15.5073180275  
Pt 4.2509251890 2.4187873724 15.4132272406  
Pt 7.0622775367 2.4190788964 15.4131111497  
Pt 2.8293349984 4.8680676020 15.4209798820  
Pt 5.6569708534 4.8626267645 15.4151815377  
Pt 8.4845497873 4.8681708925 15.4208326099  
H 1.4023260787 1.5558339931 16.8377751488  

