&CONTROL
   tprnfor          = .true.
   pseudo_dir       = '/users/kbadger1/espresso/pseudo/pslibrary.1.0.0/pbe/PSEUDOPOTENTIALS/'
/
&SYSTEM
   ecutwfc          = 40
   ecutrho          = 410
   nosym            = .true.
   occupations      = 'smearing'
   degauss          = 0.02
   smearing         = 'marzari-vanderbilt'
   nspin            = 1
   input_dft        = 'beef-vdw'
   ntyp             = 2
   nat              = 37
   ibrav            = 0
/
&ELECTRONS
   mixing_mode      = 'local-TF'
/
&IONS
/
&CELL
/
&FCP
/
&RISM
/
ATOMIC_SPECIES
Pt 195.084 Pt.pbe-n-kjpaw_psl.1.0.0.UPF
H 1.008 H.pbe-kjpaw_psl.1.0.0.UPF

K_POINTS automatic
5 5 1  0 0 0

CELL_PARAMETERS angstrom
8.48528137423857 0.00000000000000 0.00000000000000
4.24264068711929 7.34846922834953 0.00000000000000
0.00000000000000 0.00000000000000 23.92820323027551

ATOMIC_POSITIONS angstrom
Pt 0.0000000000 0.0000000000 8.5000000000   0 0 0
Pt 2.8284271247 0.0000000000 8.5000000000   0 0 0
Pt 5.6568542495 0.0000000000 8.5000000000   0 0 0
Pt 1.4142135624 2.4494897428 8.5000000000   0 0 0
Pt 4.2426406871 2.4494897428 8.5000000000   0 0 0
Pt 7.0710678119 2.4494897428 8.5000000000   0 0 0
Pt 2.8284271247 4.8989794856 8.5000000000   0 0 0
Pt 5.6568542495 4.8989794856 8.5000000000   0 0 0
Pt 8.4852813742 4.8989794856 8.5000000000   0 0 0
Pt 1.4142135624 0.8164965809 10.8094010768   0 0 0
Pt 4.2426406871 0.8164965809 10.8094010768   0 0 0
Pt 7.0710678119 0.8164965809 10.8094010768   0 0 0
Pt 2.8284271247 3.2659863237 10.8094010768   0 0 0
Pt 5.6568542495 3.2659863237 10.8094010768   0 0 0
Pt 8.4852813742 3.2659863237 10.8094010768   0 0 0
Pt 4.2426406871 5.7154760665 10.8094010768   0 0 0
Pt 7.0710678119 5.7154760665 10.8094010768   0 0 0
Pt 9.8994949366 5.7154760665 10.8094010768   0 0 0
Pt 0.0028270497 1.6348101083 13.0973857460  
Pt 2.8242345805 1.6306484803 13.1097787451  
Pt 5.6517989574 1.6336511122 13.0939581368  
Pt 1.4119922948 4.0753313042 13.0982490470  
Pt 4.2406109229 4.0780069420 13.0939194335  
Pt 7.0694301433 4.0817014948 13.0900269735  
Pt 2.8258884774 6.5306107053 13.0810814050  
Pt 5.6597825467 6.5336468026 13.0973734843  
Pt 8.4778514060 6.5337939690 13.0982320337  
Pt -0.0172271631 -0.0097085195 15.4084354670  
Pt 2.8326202232 -0.0292235957 15.4799919601  
Pt 5.6633904969 -0.0061502659 15.4134483307  
Pt 1.3908021182 2.4681329400 15.4799681372  
Pt 4.2651363000 2.4627895601 15.4534482322  
Pt 7.0664357506 2.4467930986 15.4177668740  
Pt 2.8261875693 4.9081419019 15.4134297220  
Pt 5.6519635433 4.8967432823 15.4178023441  
Pt 8.4834200477 4.8982145679 15.4182613559  
H 2.6425989870 1.5260126866 16.3733637444  

