&CONTROL
   tprnfor          = .true.
   pseudo_dir       = '/users/kbadger1/espresso/pseudo/pslibrary.1.0.0/pbe/PSEUDOPOTENTIALS/'
/
&SYSTEM
   ecutwfc          = 40
   ecutrho          = 410
   nosym            = .true.
   occupations      = 'smearing'
   degauss          = 0.02
   smearing         = 'marzari-vanderbilt'
   nspin            = 1
   input_dft        = 'beef-vdw'
   ntyp             = 2
   nat              = 37
   ibrav            = 0
/
&ELECTRONS
   mixing_mode      = 'local-TF'
/
&IONS
/
&CELL
/
&FCP
/
&RISM
/
ATOMIC_SPECIES
Pt 195.084 Pt.pbe-n-kjpaw_psl.1.0.0.UPF
H 1.008 H.pbe-kjpaw_psl.1.0.0.UPF

K_POINTS automatic
5 5 1  0 0 0

CELL_PARAMETERS angstrom
8.46831000000000 0.00000000000000 0.00000000000000
4.23415500000000 7.33377158712180 0.00000000000000
0.00000000000000 0.00000000000000 24.96566199000000

ATOMIC_POSITIONS angstrom
Pt 0.0000000000 0.0000000000 8.5000000000   0 0 0
Pt 2.8284271247 0.0000000000 8.5000000000   0 0 0
Pt 5.6568542495 0.0000000000 8.5000000000   0 0 0
Pt 1.4142135624 2.4494897428 8.5000000000   0 0 0
Pt 4.2426406871 2.4494897428 8.5000000000   0 0 0
Pt 7.0710678119 2.4494897428 8.5000000000   0 0 0
Pt 2.8284271247 4.8989794856 8.5000000000   0 0 0
Pt 5.6568542495 4.8989794856 8.5000000000   0 0 0
Pt 8.4852813742 4.8989794856 8.5000000000   0 0 0
Pt 1.4142135624 0.8164965809 10.8094010768   0 0 0
Pt 4.2426406871 0.8164965809 10.8094010768   0 0 0
Pt 7.0710678119 0.8164965809 10.8094010768   0 0 0
Pt 2.8284271247 3.2659863237 10.8094010768   0 0 0
Pt 5.6568542495 3.2659863237 10.8094010768   0 0 0
Pt 8.4852813742 3.2659863237 10.8094010768   0 0 0
Pt 4.2426406871 5.7154760665 10.8094010768   0 0 0
Pt 7.0710678119 5.7154760665 10.8094010768   0 0 0
Pt 9.8994949366 5.7154760665 10.8094010768   0 0 0
Pt 0.0152707149 1.6397881839 13.1056876025  
Pt 2.8304795841 1.6347839632 13.1163929631  
Pt 5.6528165751 1.6378585570 13.0988889774  
Pt 1.4220335329 4.0759119042 13.1057763751  
Pt 4.2443474407 4.0774056196 13.0989155851  
Pt 7.0681864660 4.0813669556 13.0936460037  
Pt 2.8340011987 6.5259750501 13.0918558461  
Pt 5.6613953766 6.5278873636 13.1058006962  
Pt 8.4745296300 6.5281827580 13.1058377763  
Pt -0.0025951855 -0.0001962132 15.4232511184  
Pt 2.8401177028 -0.0199279047 15.4950554556  
Pt 5.6650728201 0.0032954128 15.4267392088  
Pt 1.4016684651 2.4714788646 15.4950151895  
Pt 4.2697505123 2.4664769053 15.4676750972  
Pt 7.0656469212 2.4510499698 15.4292194156  
Pt 2.8342856652 4.9063754947 15.4266955080  
Pt 5.6544187400 4.8953271269 15.4294100422  
Pt 8.4796182883 4.8969222499 15.4307928731  
H 2.6635470403 1.5388286037 16.3903218818  

