&CONTROL
   tprnfor          = .true.
   pseudo_dir       = '/users/kbadger1/espresso/pseudo/pslibrary.1.0.0/pbe/PSEUDOPOTENTIALS/'
/
&SYSTEM
   ecutwfc          = 40
   ecutrho          = 410
   nosym            = .true.
   occupations      = 'smearing'
   degauss          = 0.02
   smearing         = 'marzari-vanderbilt'
   nspin            = 1
   input_dft        = 'beef-vdw'
   ntyp             = 2
   nat              = 37
   ibrav            = 0
/
&ELECTRONS
   conv_thr         = 1e-08
   mixing_mode      = 'local-TF'
/
&IONS
/
&CELL
/
&FCP
/
&RISM
/
ATOMIC_SPECIES
Pt 195.084 Pt.pbe-n-kjpaw_psl.1.0.0.UPF
H 1.008 H.pbe-kjpaw_psl.1.0.0.UPF

K_POINTS automatic
5 5 1  0 0 0

CELL_PARAMETERS angstrom
8.48528137423857 0.00000000000000 0.00000000000000
4.24264068711929 7.34846922834953 0.00000000000000
0.00000000000000 0.00000000000000 23.92820323027551

ATOMIC_POSITIONS angstrom
Pt 0.0000000000 0.0000000000 8.5000000000   0 0 0
Pt 2.8284271247 0.0000000000 8.5000000000   0 0 0
Pt 5.6568542495 0.0000000000 8.5000000000   0 0 0
Pt 1.4142135624 2.4494897428 8.5000000000   0 0 0
Pt 4.2426406871 2.4494897428 8.5000000000   0 0 0
Pt 7.0710678119 2.4494897428 8.5000000000   0 0 0
Pt 2.8284271247 4.8989794856 8.5000000000   0 0 0
Pt 5.6568542495 4.8989794856 8.5000000000   0 0 0
Pt 8.4852813742 4.8989794856 8.5000000000   0 0 0
Pt 1.4142135624 0.8164965809 10.8094010768   0 0 0
Pt 4.2426406871 0.8164965809 10.8094010768   0 0 0
Pt 7.0710678119 0.8164965809 10.8094010768   0 0 0
Pt 2.8284271247 3.2659863237 10.8094010768   0 0 0
Pt 5.6568542495 3.2659863237 10.8094010768   0 0 0
Pt 8.4852813742 3.2659863237 10.8094010768   0 0 0
Pt 4.2426406871 5.7154760665 10.8094010768   0 0 0
Pt 7.0710678119 5.7154760665 10.8094010768   0 0 0
Pt 9.8994949366 5.7154760665 10.8094010768   0 0 0
Pt 0.0053252281 1.6290361360 13.1084187797  
Pt 2.8245067441 1.6292131852 13.1072459259  
Pt 5.6575708260 1.6287651054 13.0873654665  
Pt 1.4151840312 4.0699478950 13.1053981027  
Pt 4.2424478304 4.0801613229 13.0888524172  
Pt 7.0726666270 4.0801997818 13.0888406049  
Pt 2.8360178201 6.5324765715 13.1005717120  
Pt 5.6572283912 6.5334855731 13.1057367091  
Pt 8.4807978519 6.5316712637 13.0986131715  
Pt -0.0193119676 -0.0131197154 15.4718958766  
Pt 2.8536045250 -0.0147768198 15.4638609046  
Pt 5.6587546174 -0.0007823149 15.4221518021  
Pt 1.4164272101 2.4899045481 15.4841227706  
Pt 4.2575513945 2.4530179475 15.4164510753  
Pt 7.0577682956 2.4540207377 15.4163630684  
Pt 2.8342999400 4.9018919135 15.4215111821  
Pt 5.6583563457 4.8879124359 15.4179366297  
Pt 8.4828912838 4.9014544568 15.4214397596  
H 1.3807351709 1.0079380811 16.4127656515  

