Pt  H 
 1.0000000000000000
     8.4683100000000007    0.0000000000000000    0.0000000000000000
     4.2341550000000012    7.3337715871217997    0.0000000000000000
     0.0000000000000000    0.0000000000000000   24.9656619900000010
 Pt  H  
  36   1
Selective dynamics
Cartesian
  0.0000000000000000  0.0000000000000000  8.5000000000000000   F   F   F
  2.8284271247461903  0.0000000000000000  8.5000000000000000   F   F   F
  5.6568542494923806  0.0000000000000000  8.5000000000000000   F   F   F
  1.4142135623730951  2.4494897427831779  8.5000000000000000   F   F   F
  4.2426406871192857  2.4494897427831779  8.5000000000000000   F   F   F
  7.0710678118654755  2.4494897427831779  8.5000000000000000   F   F   F
  2.8284271247461903  4.8989794855663558  8.5000000000000000   F   F   F
  5.6568542494923806  4.8989794855663558  8.5000000000000000   F   F   F
  8.4852813742385713  4.8989794855663558  8.5000000000000000   F   F   F
  1.4142135623730951  0.8164965809277259 10.8094010767585029   F   F   F
  4.2426406871192848  0.8164965809277259 10.8094010767585029   F   F   F
  7.0710678118654755  0.8164965809277259 10.8094010767585029   F   F   F
  2.8284271247461903  3.2659863237109037 10.8094010767585029   F   F   F
  5.6568542494923806  3.2659863237109037 10.8094010767585029   F   F   F
  8.4852813742385713  3.2659863237109037 10.8094010767585029   F   F   F
  4.2426406871192857  5.7154760664940820 10.8094010767585029   F   F   F
  7.0710678118654755  5.7154760664940820 10.8094010767585029   F   F   F
  9.8994949366116671  5.7154760664940820 10.8094010767585029   F   F   F
  0.0194205595775682  1.6445273963507772 13.1018075406599177   T   T   T
  2.8369249376884307  1.6405781039162117 13.1214374689172253   T   T   T
  5.6550328005860955  1.6435628484407878 13.0986334020325437   T   T   T
  1.4263445463418154  4.0804196805200581 13.1013388165828761   T   T   T
  4.2482566517326728  4.0799349749139777 13.0982813352690375   T   T   T
  7.0716602967004194  4.0859839017440729 13.0882200866327754   T   T   T
  2.8384734100871589  6.5309412654377939 13.0827123049499345   T   T   T
  5.6655265539870188  6.5329776943755942 13.1013386794790367   T   T   T
  8.4794408346891306  6.5335623254170212 13.1015019468897567   T   T   T
  0.0039242341037876  0.0067699757620289 15.4149832034943088   T   T   T
  2.8376446177269798 -0.0166750599507966 15.4830489976719132   T   T   T
  5.6727521426525520  0.0078907394359074 15.4155579306723354   T   T   T
  1.3997003019949343  2.4731733992541032 15.4830939878097702   T   T   T
  4.2771981809861490  2.4739542718494727 15.4813706433351950   T   T   T
  7.0725109574178937  2.4567926002267035 15.4193641763847449   T   T   T
  2.8380504074604769  4.9165475844366826 15.4154345810208859   T   T   T
  5.6599767340666540  4.9037621373171376 15.4192169342082206   T   T   T
  8.4852436979292918  4.9036185638078598 15.4196626017148581   T   T   T
  2.8368358751790810  1.6538459792766222 16.3368946662402266   T   T   T
