&CONTROL
   tprnfor          = .true.
   pseudo_dir       = '/users/kbadger1/espresso/pseudo/pslibrary.1.0.0/pbe/PSEUDOPOTENTIALS/'
/
&SYSTEM
   ecutwfc          = 40
   ecutrho          = 410
   nosym            = .true.
   occupations      = 'smearing'
   degauss          = 0.001
   smearing         = 'marzari-vanderbilt'
   nspin            = 1
   input_dft        = 'beef-vdw'
   ntyp             = 3
   nat              = 39
   ibrav            = 0
/
&ELECTRONS
   conv_thr         = 1e-08
   mixing_mode      = 'local-TF'
/
&IONS
/
&CELL
/
&FCP
/
&RISM
/
ATOMIC_SPECIES
Pt 195.084 Pt.pbe-n-kjpaw_psl.1.0.0.UPF
O 15.999 O.pbe-nl-kjpaw_psl.1.0.0.UPF
H 1.008 H.pbe-kjpaw_psl.1.0.0.UPF

K_POINTS automatic
5 5 1  0 0 0

CELL_PARAMETERS angstrom
8.48528137423857 0.00000000000000 0.00000000000000
4.24264068711929 7.34846922834953 0.00000000000000
0.00000000000000 0.00000000000000 23.92820323027551

ATOMIC_POSITIONS angstrom
Pt 0.0000000000 0.0000000000 8.5000000000   0 0 0
Pt 2.8284271247 0.0000000000 8.5000000000   0 0 0
Pt 5.6568542495 0.0000000000 8.5000000000   0 0 0
Pt 1.4142135624 2.4494897428 8.5000000000   0 0 0
Pt 4.2426406871 2.4494897428 8.5000000000   0 0 0
Pt 7.0710678119 2.4494897428 8.5000000000   0 0 0
Pt 2.8284271247 4.8989794856 8.5000000000   0 0 0
Pt 5.6568542495 4.8989794856 8.5000000000   0 0 0
Pt 8.4852813742 4.8989794856 8.5000000000   0 0 0
Pt 1.4142135624 0.8164965809 10.8094010768   0 0 0
Pt 4.2426406871 0.8164965809 10.8094010768   0 0 0
Pt 7.0710678119 0.8164965809 10.8094010768   0 0 0
Pt 2.8284271247 3.2659863237 10.8094010768   0 0 0
Pt 5.6568542495 3.2659863237 10.8094010768   0 0 0
Pt 8.4852813742 3.2659863237 10.8094010768   0 0 0
Pt 4.2426406871 5.7154760665 10.8094010768   0 0 0
Pt 7.0710678119 5.7154760665 10.8094010768   0 0 0
Pt 9.8994949366 5.7154760665 10.8094010768   0 0 0
Pt -0.0641043123 1.6830240992 13.0860196633  
Pt 2.7744737554 1.7007599348 13.1401790248  
Pt 5.5789005233 1.6854678040 13.1376816286  
Pt 1.3456983969 4.1401368006 13.1015795024  
Pt 4.1680381615 4.1217073649 13.1444374200  
Pt 7.0058588916 4.1385000198 13.0938827794  
Pt 2.7497566616 6.5964257193 13.1153265975  
Pt 5.5851573414 6.5853915147 13.0839634284  
Pt 8.4234367628 6.5957629187 13.1177445339  
Pt -0.1291842898 0.1085691213 15.4362686805  
Pt 2.6742305285 0.0905313101 15.4150195423  
Pt 5.5287088366 0.0939395444 15.5300956167  
Pt 1.2581572996 2.5607123632 15.4206794803  
Pt 4.1094750900 2.5753377276 15.5573312738  
Pt 6.9554923600 2.5601084693 15.4128567388  
Pt 2.6856529386 5.0259691750 15.4349203005  
Pt 5.5323521188 5.0233590697 15.4253950213  
Pt 8.3473412522 5.0050142995 15.4355261579  
O 4.0374082362 2.5011406635 17.5700691641  
H 4.9274616178 2.7204794587 17.8938649667  
H 5.3536012502 0.2348219282 17.0672942924  

