&CONTROL
   tprnfor          = .true.
   pseudo_dir       = '/users/kbadger1/espresso/pseudo/pslibrary.1.0.0/pbe/PSEUDOPOTENTIALS/'
/
&SYSTEM
   ecutwfc          = 40
   ecutrho          = 410
   nosym            = .true.
   occupations      = 'smearing'
   degauss          = 0.001
   smearing         = 'marzari-vanderbilt'
   nspin            = 1
   input_dft        = 'beef-vdw'
   ntyp             = 3
   nat              = 39
   ibrav            = 0
/
&ELECTRONS
   conv_thr         = 1e-08
   mixing_mode      = 'local-TF'
/
&IONS
/
&CELL
/
&FCP
/
&RISM
/
ATOMIC_SPECIES
Pt 195.084 Pt.pbe-n-kjpaw_psl.1.0.0.UPF
O 15.999 O.pbe-nl-kjpaw_psl.1.0.0.UPF
H 1.008 H.pbe-kjpaw_psl.1.0.0.UPF

K_POINTS automatic
5 5 1  0 0 0

CELL_PARAMETERS angstrom
8.48528137423857 0.00000000000000 0.00000000000000
4.24264068711929 7.34846922834953 0.00000000000000
0.00000000000000 0.00000000000000 23.92820323027551

ATOMIC_POSITIONS angstrom
Pt 0.0000000000 0.0000000000 8.5000000000   0 0 0
Pt 2.8284271247 0.0000000000 8.5000000000   0 0 0
Pt 5.6568542495 0.0000000000 8.5000000000   0 0 0
Pt 1.4142135624 2.4494897428 8.5000000000   0 0 0
Pt 4.2426406871 2.4494897428 8.5000000000   0 0 0
Pt 7.0710678119 2.4494897428 8.5000000000   0 0 0
Pt 2.8284271247 4.8989794856 8.5000000000   0 0 0
Pt 5.6568542495 4.8989794856 8.5000000000   0 0 0
Pt 8.4852813742 4.8989794856 8.5000000000   0 0 0
Pt 1.4142135624 0.8164965809 10.8094010768   0 0 0
Pt 4.2426406871 0.8164965809 10.8094010768   0 0 0
Pt 7.0710678119 0.8164965809 10.8094010768   0 0 0
Pt 2.8284271247 3.2659863237 10.8094010768   0 0 0
Pt 5.6568542495 3.2659863237 10.8094010768   0 0 0
Pt 8.4852813742 3.2659863237 10.8094010768   0 0 0
Pt 4.2426406871 5.7154760665 10.8094010768   0 0 0
Pt 7.0710678119 5.7154760665 10.8094010768   0 0 0
Pt 9.8994949366 5.7154760665 10.8094010768   0 0 0
Pt -0.0643036555 1.6845583297 13.0881209935  
Pt 2.7617393960 1.6970698139 13.1172361280  
Pt 5.5891625042 1.6824939789 13.1188534549  
Pt 1.3415368093 4.1461788945 13.1097707487  
Pt 4.1587979770 4.1075621434 13.1634162631  
Pt 7.0018078939 4.1452578360 13.0965064923  
Pt 2.7555700504 6.5873616472 13.1105933009  
Pt 5.5761683452 6.5798267570 13.0824733049  
Pt 8.4224332593 6.5970359131 13.1136836947  
Pt -0.1458800144 0.1234111096 15.4398303537  
Pt 2.6629358089 0.0936144901 15.3976014197  
Pt 5.5249331653 0.1069181844 15.5161012272  
Pt 1.2565065322 2.5744512542 15.4280374094  
Pt 4.0933146055 2.6266224217 15.4922041481  
Pt 6.9565059061 2.5791102481 15.4078486593  
Pt 2.6704009667 5.0540872515 15.4681431714  
Pt 5.5250072981 5.0385530720 15.4417883570  
Pt 8.3439643670 5.0239462012 15.4494713253  
O 4.3311976056 1.9482485868 17.5443131036  
H 4.9618387596 2.5925596704 17.9255223812  
H 4.9625960575 0.9727229812 17.0522188691  

