&CONTROL
   tprnfor          = .true.
   pseudo_dir       = '/users/kbadger1/espresso/pseudo/pslibrary.1.0.0/pbe/PSEUDOPOTENTIALS/'
/
&SYSTEM
   ecutwfc          = 40
   ecutrho          = 410
   nosym            = .true.
   occupations      = 'smearing'
   degauss          = 0.001
   smearing         = 'marzari-vanderbilt'
   nspin            = 1
   input_dft        = 'beef-vdw'
   ntyp             = 2
   nat              = 37
   ibrav            = 0
/
&ELECTRONS
   mixing_mode      = 'local-TF'
/
&IONS
/
&CELL
/
&FCP
/
&RISM
/
ATOMIC_SPECIES
Pt 195.084 Pt.pbe-n-kjpaw_psl.1.0.0.UPF
H 1.008 H.pbe-kjpaw_psl.1.0.0.UPF

K_POINTS automatic
5 5 1  0 0 0

CELL_PARAMETERS angstrom
8.48528137423857 0.00000000000000 0.00000000000000
4.24264068711929 7.34846922834953 0.00000000000000
0.00000000000000 0.00000000000000 23.92820323027551

ATOMIC_POSITIONS angstrom
Pt 0.0000000000 0.0000000000 8.5000000000   0 0 0
Pt 2.8284271247 0.0000000000 8.5000000000   0 0 0
Pt 5.6568542495 0.0000000000 8.5000000000   0 0 0
Pt 1.4142135624 2.4494897428 8.5000000000   0 0 0
Pt 4.2426406871 2.4494897428 8.5000000000   0 0 0
Pt 7.0710678119 2.4494897428 8.5000000000   0 0 0
Pt 2.8284271247 4.8989794856 8.5000000000   0 0 0
Pt 5.6568542495 4.8989794856 8.5000000000   0 0 0
Pt 8.4852813742 4.8989794856 8.5000000000   0 0 0
Pt 1.4142135624 0.8164965809 10.8094010768   0 0 0
Pt 4.2426406871 0.8164965809 10.8094010768   0 0 0
Pt 7.0710678119 0.8164965809 10.8094010768   0 0 0
Pt 2.8284271247 3.2659863237 10.8094010768   0 0 0
Pt 5.6568542495 3.2659863237 10.8094010768   0 0 0
Pt 8.4852813742 3.2659863237 10.8094010768   0 0 0
Pt 4.2426406871 5.7154760665 10.8094010768   0 0 0
Pt 7.0710678119 5.7154760665 10.8094010768   0 0 0
Pt 9.8994949366 5.7154760665 10.8094010768   0 0 0
Pt 0.0128245529 1.6429835296 13.1280990472  
Pt 2.8142341984 1.6430648541 13.1281261228  
Pt 5.6562417304 1.6340025744 13.0955373467  
Pt 1.4136205806 4.0691612826 13.1282792811  
Pt 4.2412863980 4.0841229435 13.1007165336  
Pt 7.0712236751 4.0840470498 13.1009040521  
Pt 2.8270409320 6.5345882579 13.0952748146  
Pt 5.6562183929 6.5348848027 13.1008065089  
Pt 8.4855432566 6.5346404048 13.0955350804  
Pt -0.0063074615 -0.0002488911 15.4302339485  
Pt 2.8325319009 -0.0001642092 15.4305102976  
Pt 5.6558572041 0.0037896348 15.4358644878  
Pt 1.4132715675 2.4531144395 15.5769211629  
Pt 4.2477289139 2.4509516366 15.4305937523  
Pt 7.0638402992 2.4508186572 15.4306346916  
Pt 2.8283605985 4.9093792816 15.4302319612  
Pt 5.6556706079 4.9028038764 15.4300190733  
Pt 8.4832434303 4.9093552559 15.4304710867  
H 1.4130023241 2.4537471283 17.1325614350  

