&CONTROL
   tprnfor          = .true.
   pseudo_dir       = '/users/kbadger1/espresso/pseudo/pslibrary.1.0.0/pbe/PSEUDOPOTENTIALS/'
/
&SYSTEM
   ecutwfc          = 40
   ecutrho          = 410
   nosym            = .true.
   occupations      = 'smearing'
   degauss          = 0.02
   smearing         = 'marzari-vanderbilt'
   nspin            = 1
   input_dft        = 'beef-vdw'
   ntyp             = 3
   nat              = 38
   ibrav            = 0
/
&ELECTRONS
   conv_thr         = 1e-08
   mixing_mode      = 'local-TF'
/
&IONS
/
&CELL
/
&FCP
/
&RISM
/
ATOMIC_SPECIES
Pt 195.084 Pt.pbe-n-kjpaw_psl.1.0.0.UPF
C 12.011 C.pbe-n-kjpaw_psl.1.0.0.UPF
H 1.008 H.pbe-kjpaw_psl.1.0.0.UPF

K_POINTS automatic
5 5 1  0 0 0

CELL_PARAMETERS angstrom
8.48528137423857 0.00000000000000 0.00000000000000
4.24264068711929 7.34846922834953 0.00000000000000
0.00000000000000 0.00000000000000 23.92820323027551

ATOMIC_POSITIONS angstrom
Pt 0.0000000000 0.0000000000 8.5000000000   0 0 0
Pt 2.8284271247 0.0000000000 8.5000000000   0 0 0
Pt 5.6568542495 0.0000000000 8.5000000000   0 0 0
Pt 1.4142135624 2.4494897428 8.5000000000   0 0 0
Pt 4.2426406871 2.4494897428 8.5000000000   0 0 0
Pt 7.0710678119 2.4494897428 8.5000000000   0 0 0
Pt 2.8284271247 4.8989794856 8.5000000000   0 0 0
Pt 5.6568542495 4.8989794856 8.5000000000   0 0 0
Pt 8.4852813742 4.8989794856 8.5000000000   0 0 0
Pt 1.4142135624 0.8164965809 10.8094010768   0 0 0
Pt 4.2426406871 0.8164965809 10.8094010768   0 0 0
Pt 7.0710678119 0.8164965809 10.8094010768   0 0 0
Pt 2.8284271247 3.2659863237 10.8094010768   0 0 0
Pt 5.6568542495 3.2659863237 10.8094010768   0 0 0
Pt 8.4852813742 3.2659863237 10.8094010768   0 0 0
Pt 4.2426406871 5.7154760665 10.8094010768   0 0 0
Pt 7.0710678119 5.7154760665 10.8094010768   0 0 0
Pt 9.8994949366 5.7154760665 10.8094010768   0 0 0
Pt 0.0106567347 1.6527557538 13.1233133424  
Pt 2.8156167447 1.6531212998 13.1232068901  
Pt 5.6560335477 1.6568230764 13.0816585826  
Pt 1.4131468687 4.0810897784 13.1436331721  
Pt 4.2369672017 4.1056274487 13.0782290884  
Pt 7.0750943612 4.1055602416 13.0784941368  
Pt 2.8407568074 6.5682045875 13.1144508805  
Pt 5.6562117293 6.5646413057 13.1086708407  
Pt 8.4714945564 6.5687607574 13.1142053986  
Pt -0.0910193735 0.0153533056 15.5367952214  
Pt 2.9174587791 0.0165359146 15.5361943359  
Pt 5.6557920614 0.0630355342 15.4299914813  
Pt 1.4116336687 2.6634283103 15.6069605246  
Pt 4.2698485786 2.5253019254 15.3974621762  
Pt 7.0399073155 2.5248009376 15.3978844596  
Pt 2.8398435844 4.9813994175 15.4223508385  
Pt 5.6549062124 4.9225978916 15.3887524571  
Pt 8.4694770466 4.9819033833 15.4219577290  
C 1.4130231997 0.8268394724 16.3873612713  
H 1.4112931438 2.2091709633 17.1790638391  

