&CONTROL
   tprnfor          = .true.
   pseudo_dir       = '/users/kbadger1/espresso/pseudo/pslibrary.1.0.0/pbe/PSEUDOPOTENTIALS/'
/
&SYSTEM
   ecutwfc          = 40
   ecutrho          = 410
   nosym            = .true.
   occupations      = 'smearing'
   degauss          = 0.02
   smearing         = 'marzari-vanderbilt'
   nspin            = 1
   input_dft        = 'beef-vdw'
   ntyp             = 3
   nat              = 38
   ibrav            = 0
/
&ELECTRONS
   mixing_mode      = 'local-TF'
/
&IONS
/
&CELL
/
&FCP
/
&RISM
/
ATOMIC_SPECIES
Pt 195.084 Pt.pbe-n-kjpaw_psl.1.0.0.UPF
H 1.008 H.pbe-kjpaw_psl.1.0.0.UPF
C 12.011 C.pbe-n-kjpaw_psl.1.0.0.UPF

K_POINTS automatic
5 5 1  0 0 0

CELL_PARAMETERS angstrom
8.46831000000000 0.00000000000000 0.00000000000000
4.23415500000000 7.33377158712180 0.00000000000000
0.00000000000000 0.00000000000000 24.96566199000000

ATOMIC_POSITIONS angstrom
Pt 0.0000000000 0.0000000000 8.5000000000   0 0 0
Pt 2.8284271247 0.0000000000 8.5000000000   0 0 0
Pt 5.6568542495 0.0000000000 8.5000000000   0 0 0
Pt 1.4142135624 2.4494897428 8.5000000000   0 0 0
Pt 4.2426406871 2.4494897428 8.5000000000   0 0 0
Pt 7.0710678119 2.4494897428 8.5000000000   0 0 0
Pt 2.8284271247 4.8989794856 8.5000000000   0 0 0
Pt 5.6568542495 4.8989794856 8.5000000000   0 0 0
Pt 8.4852813742 4.8989794856 8.5000000000   0 0 0
Pt 1.4142135624 0.8164965809 10.8094010768   0 0 0
Pt 4.2426406871 0.8164965809 10.8094010768   0 0 0
Pt 7.0710678119 0.8164965809 10.8094010768   0 0 0
Pt 2.8284271247 3.2659863237 10.8094010768   0 0 0
Pt 5.6568542495 3.2659863237 10.8094010768   0 0 0
Pt 8.4852813742 3.2659863237 10.8094010768   0 0 0
Pt 4.2426406871 5.7154760665 10.8094010768   0 0 0
Pt 7.0710678119 5.7154760665 10.8094010768   0 0 0
Pt 9.8994949366 5.7154760665 10.8094010768   0 0 0
Pt 0.0233840611 1.6569476361 13.1314077166  
Pt 2.8244306900 1.6560066646 13.1287957401  
Pt 5.6582590246 1.6585983632 13.0863323403  
Pt 1.4246175401 4.0811905587 13.1530246372  
Pt 4.2420130911 4.1040730845 13.0854266935  
Pt 7.0748097695 4.1042118670 13.0847165916  
Pt 2.8499309773 6.5614595576 13.1259603404  
Pt 5.6586496834 6.5568929378 13.1164737100  
Pt 8.4687587490 6.5604475475 13.1229813055  
Pt -0.0729372886 0.0260715573 15.5526609093  
Pt 2.9220960950 0.0266318557 15.5506294043  
Pt 5.6586423053 0.0728222375 15.4441320507  
Pt 1.4250735441 2.6531296608 15.6163907480  
Pt 4.2776560666 2.5289862168 15.4100049703  
Pt 7.0409742755 2.5292271432 15.4105448270  
Pt 2.8482584184 4.9777037263 15.4407953608  
Pt 5.6595652800 4.9216728258 15.4043652775  
Pt 8.4702458347 4.9783286863 15.4398033578  
H 1.4263250659 2.2311446092 17.1960674826  
C 1.4249833940 0.8225377453 16.4316025697  

