&CONTROL
   tprnfor          = .true.
   pseudo_dir       = '/users/kbadger1/espresso/pseudo/pslibrary.1.0.0/pbe/PSEUDOPOTENTIALS/'
/
&SYSTEM
   ecutwfc          = 40
   ecutrho          = 410
   nosym            = .true.
   occupations      = 'smearing'
   degauss          = 0.001
   smearing         = 'marzari-vanderbilt'
   nspin            = 1
   input_dft        = 'beef-vdw'
   ntyp             = 3
   nat              = 38
   ibrav            = 0
/
&ELECTRONS
   conv_thr         = 1e-08
   mixing_mode      = 'local-TF'
/
&IONS
/
&CELL
/
&FCP
/
&RISM
/
ATOMIC_SPECIES
Pt 195.084 Pt.pbe-n-kjpaw_psl.1.0.0.UPF
C 12.011 C.pbe-n-kjpaw_psl.1.0.0.UPF
H 1.008 H.pbe-kjpaw_psl.1.0.0.UPF

K_POINTS automatic
5 5 1  0 0 0

CELL_PARAMETERS angstrom
8.48528137423857 0.00000000000000 0.00000000000000
4.24264068711929 7.34846922834953 0.00000000000000
0.00000000000000 0.00000000000000 23.92820323027551

ATOMIC_POSITIONS angstrom
Pt 0.0000000000 0.0000000000 8.5000000000   0 0 0
Pt 2.8284271247 0.0000000000 8.5000000000   0 0 0
Pt 5.6568542495 0.0000000000 8.5000000000   0 0 0
Pt 1.4142135624 2.4494897428 8.5000000000   0 0 0
Pt 4.2426406871 2.4494897428 8.5000000000   0 0 0
Pt 7.0710678119 2.4494897428 8.5000000000   0 0 0
Pt 2.8284271247 4.8989794856 8.5000000000   0 0 0
Pt 5.6568542495 4.8989794856 8.5000000000   0 0 0
Pt 8.4852813742 4.8989794856 8.5000000000   0 0 0
Pt 1.4142135624 0.8164965809 10.8094010768   0 0 0
Pt 4.2426406871 0.8164965809 10.8094010768   0 0 0
Pt 7.0710678119 0.8164965809 10.8094010768   0 0 0
Pt 2.8284271247 3.2659863237 10.8094010768   0 0 0
Pt 5.6568542495 3.2659863237 10.8094010768   0 0 0
Pt 8.4852813742 3.2659863237 10.8094010768   0 0 0
Pt 4.2426406871 5.7154760665 10.8094010768   0 0 0
Pt 7.0710678119 5.7154760665 10.8094010768   0 0 0
Pt 9.8994949366 5.7154760665 10.8094010768   0 0 0
Pt 0.0125456948 1.6398611920 13.1377621684  
Pt 2.8137088921 1.6398339567 13.1377166885  
Pt 5.6559750949 1.6468656067 13.0853828497  
Pt 1.4134586180 4.0689637538 13.1524860836  
Pt 4.2378757279 4.0947594556 13.0812011556  
Pt 7.0744102073 4.0948432855 13.0812242985  
Pt 2.8427394597 6.5587914202 13.1249452191  
Pt 5.6560834684 6.5555642562 13.1271756591  
Pt 8.4695261146 6.5589196623 13.1249010089  
Pt -0.0940217934 -0.0113470719 15.5629914045  
Pt 2.9210933283 -0.0112934606 15.5628564633  
Pt 5.6561480020 0.0416148524 15.4405077450  
Pt 1.4132745705 2.6333837530 15.6181588124  
Pt 4.2711445372 2.5006514704 15.4001959331  
Pt 7.0406351210 2.5006705095 15.4003304444  
Pt 2.8417442185 4.9534528833 15.4320290958  
Pt 5.6560022974 4.8995038525 15.3930277045  
Pt 8.4702640300 4.9534842532 15.4319920150  
C 1.4135822949 0.7979066101 16.4041327004  
H 1.4131935375 2.1773766018 17.1916120179  

