&CONTROL
   tprnfor          = .true.
   pseudo_dir       = '/users/kbadger1/espresso/pseudo/pslibrary.1.0.0/pbe/PSEUDOPOTENTIALS/'
/
&SYSTEM
   ecutwfc          = 40
   ecutrho          = 410
   nosym            = .true.
   occupations      = 'smearing'
   degauss          = 0.02
   smearing         = 'marzari-vanderbilt'
   nspin            = 1
   input_dft        = 'beef-vdw'
   ntyp             = 3
   nat              = 39
   ibrav            = 0
/
&ELECTRONS
   conv_thr         = 1e-08
   mixing_mode      = 'local-TF'
/
&IONS
/
&CELL
/
&FCP
/
&RISM
/
ATOMIC_SPECIES
Pt 195.084 Pt.pbe-n-kjpaw_psl.1.0.0.UPF
O 15.999 O.pbe-nl-kjpaw_psl.1.0.0.UPF
H 1.008 H.pbe-kjpaw_psl.1.0.0.UPF

K_POINTS automatic
5 5 1  0 0 0

CELL_PARAMETERS angstrom
8.48528137423857 0.00000000000000 0.00000000000000
4.24264068711929 7.34846922834953 0.00000000000000
0.00000000000000 0.00000000000000 23.92820323027551

ATOMIC_POSITIONS angstrom
Pt 0.0000000000 0.0000000000 8.5000000000   0 0 0
Pt 2.8284271247 0.0000000000 8.5000000000   0 0 0
Pt 5.6568542495 0.0000000000 8.5000000000   0 0 0
Pt 1.4142135624 2.4494897428 8.5000000000   0 0 0
Pt 4.2426406871 2.4494897428 8.5000000000   0 0 0
Pt 7.0710678119 2.4494897428 8.5000000000   0 0 0
Pt 2.8284271247 4.8989794856 8.5000000000   0 0 0
Pt 5.6568542495 4.8989794856 8.5000000000   0 0 0
Pt 8.4852813742 4.8989794856 8.5000000000   0 0 0
Pt 1.4142135624 0.8164965809 10.8094010768   0 0 0
Pt 4.2426406871 0.8164965809 10.8094010768   0 0 0
Pt 7.0710678119 0.8164965809 10.8094010768   0 0 0
Pt 2.8284271247 3.2659863237 10.8094010768   0 0 0
Pt 5.6568542495 3.2659863237 10.8094010768   0 0 0
Pt 8.4852813742 3.2659863237 10.8094010768   0 0 0
Pt 4.2426406871 5.7154760665 10.8094010768   0 0 0
Pt 7.0710678119 5.7154760665 10.8094010768   0 0 0
Pt 9.8994949366 5.7154760665 10.8094010768   0 0 0
Pt -0.0121535141 1.6462466963 13.0793750658  
Pt 2.8132221741 1.6515684119 13.0884667256  
Pt 5.6450966291 1.6446464810 13.0880525751  
Pt 1.3970950393 4.1031426195 13.0929918876  
Pt 4.2238872298 4.0840119037 13.1102656632  
Pt 7.0549822817 4.1023100054 13.0886209783  
Pt 2.8208613177 6.5425629772 13.0783189693  
Pt 5.6362908886 6.5440888102 13.0799524607  
Pt 8.4696845149 6.5481152295 13.0851110536  
Pt -0.0386003817 0.0430979819 15.4183170806  
Pt 2.7800648526 0.0244192680 15.3884997062  
Pt 5.6333670756 0.0124469652 15.3941587020  
Pt 1.3640410677 2.4932108658 15.4077676562  
Pt 4.1934939921 2.5209955049 15.4075702513  
Pt 7.0511519260 2.4950065562 15.3942980082  
Pt 2.7822902527 4.9585893606 15.4269325536  
Pt 5.6272134599 4.9541674208 15.4212782286  
Pt 8.4460382867 4.9410157923 15.4257017479  
O 4.4489331973 1.9169135155 17.7372745136  
H 5.1347186522 2.5434882496 18.0192462755  
H 4.9399115486 1.1131019351 17.4442783853  

