&CONTROL
   tprnfor          = .true.
   pseudo_dir       = '/users/kbadger1/espresso/pseudo/pslibrary.1.0.0/pbe/PSEUDOPOTENTIALS/'
/
&SYSTEM
   ecutwfc          = 40
   ecutrho          = 410
   nosym            = .true.
   occupations      = 'smearing'
   degauss          = 0.02
   smearing         = 'marzari-vanderbilt'
   nspin            = 1
   input_dft        = 'beef-vdw'
   ntyp             = 2
   nat              = 37
   ibrav            = 0
/
&ELECTRONS
   mixing_mode      = 'local-TF'
/
&IONS
/
&CELL
/
&FCP
/
&RISM
/
ATOMIC_SPECIES
Pt 195.084 Pt.pbe-n-kjpaw_psl.1.0.0.UPF
H 1.008 H.pbe-kjpaw_psl.1.0.0.UPF

K_POINTS automatic
5 5 1  0 0 0

CELL_PARAMETERS angstrom
8.48528137423857 0.00000000000000 0.00000000000000
4.24264068711929 7.34846922834953 0.00000000000000
0.00000000000000 0.00000000000000 23.92820323027551

ATOMIC_POSITIONS angstrom
Pt 0.0000000000 0.0000000000 8.5000000000   0 0 0
Pt 2.8284271247 0.0000000000 8.5000000000   0 0 0
Pt 5.6568542495 0.0000000000 8.5000000000   0 0 0
Pt 1.4142135624 2.4494897428 8.5000000000   0 0 0
Pt 4.2426406871 2.4494897428 8.5000000000   0 0 0
Pt 7.0710678119 2.4494897428 8.5000000000   0 0 0
Pt 2.8284271247 4.8989794856 8.5000000000   0 0 0
Pt 5.6568542495 4.8989794856 8.5000000000   0 0 0
Pt 8.4852813742 4.8989794856 8.5000000000   0 0 0
Pt 1.4142135624 0.8164965809 10.8094010768   0 0 0
Pt 4.2426406871 0.8164965809 10.8094010768   0 0 0
Pt 7.0710678119 0.8164965809 10.8094010768   0 0 0
Pt 2.8284271247 3.2659863237 10.8094010768   0 0 0
Pt 5.6568542495 3.2659863237 10.8094010768   0 0 0
Pt 8.4852813742 3.2659863237 10.8094010768   0 0 0
Pt 4.2426406871 5.7154760665 10.8094010768   0 0 0
Pt 7.0710678119 5.7154760665 10.8094010768   0 0 0
Pt 9.8994949366 5.7154760665 10.8094010768   0 0 0
Pt 0.0048945348 1.6240702069 13.1054785458  
Pt 2.8244695190 1.6242162559 13.1047226941  
Pt 5.6572990820 1.6242515525 13.0865807524  
Pt 1.4148895718 4.0569168474 13.1135008111  
Pt 4.2424615393 4.0753034388 13.0882984697  
Pt 7.0721899997 4.0753381027 13.0881429429  
Pt 2.8337976479 6.5249396250 13.0973940587  
Pt 5.6570244307 6.5284801157 13.1014025024  
Pt 8.4823337973 6.5240906310 13.0956509117  
Pt -0.0169284671 -0.0236370671 15.4571992194  
Pt 2.8506004811 -0.0257308744 15.4502805066  
Pt 5.6584199699 -0.0119310350 15.4202592439  
Pt 1.4155140073 2.4651149068 15.4973318503  
Pt 4.2560677743 2.4407519304 15.4134625908  
Pt 7.0585933944 2.4414354050 15.4130143654  
Pt 2.8337423722 4.8911468446 15.4191971006  
Pt 5.6578822388 4.8807025479 15.4151738064  
Pt 8.4826222551 4.8905201797 15.4191534752  
H 1.3865818437 1.1807274233 16.5549784041  

