&CONTROL
   tprnfor          = .true.
   pseudo_dir       = '/users/kbadger1/espresso/pseudo/pslibrary.1.0.0/pbe/PSEUDOPOTENTIALS/'
/
&SYSTEM
   ecutwfc          = 40
   ecutrho          = 410
   nosym            = .true.
   occupations      = 'smearing'
   degauss          = 0.02
   smearing         = 'marzari-vanderbilt'
   nspin            = 1
   input_dft        = 'beef-vdw'
   ntyp             = 2
   nat              = 37
   ibrav            = 0
/
&ELECTRONS
   mixing_mode      = 'local-TF'
/
&IONS
/
&CELL
/
&FCP
/
&RISM
/
ATOMIC_SPECIES
Pt 195.084 Pt.pbe-n-kjpaw_psl.1.0.0.UPF
H 1.008 H.pbe-kjpaw_psl.1.0.0.UPF

K_POINTS automatic
5 5 1  0 0 0

CELL_PARAMETERS angstrom
8.46831000000000 0.00000000000000 0.00000000000000
4.23415500000000 7.33377158712180 0.00000000000000
0.00000000000000 0.00000000000000 24.96566199000000

ATOMIC_POSITIONS angstrom
Pt 0.0000000000 0.0000000000 8.5000000000   0 0 0
Pt 2.8284271247 0.0000000000 8.5000000000   0 0 0
Pt 5.6568542495 0.0000000000 8.5000000000   0 0 0
Pt 1.4142135624 2.4494897428 8.5000000000   0 0 0
Pt 4.2426406871 2.4494897428 8.5000000000   0 0 0
Pt 7.0710678119 2.4494897428 8.5000000000   0 0 0
Pt 2.8284271247 4.8989794856 8.5000000000   0 0 0
Pt 5.6568542495 4.8989794856 8.5000000000   0 0 0
Pt 8.4852813742 4.8989794856 8.5000000000   0 0 0
Pt 1.4142135624 0.8164965809 10.8094010768   0 0 0
Pt 4.2426406871 0.8164965809 10.8094010768   0 0 0
Pt 7.0710678119 0.8164965809 10.8094010768   0 0 0
Pt 2.8284271247 3.2659863237 10.8094010768   0 0 0
Pt 5.6568542495 3.2659863237 10.8094010768   0 0 0
Pt 8.4852813742 3.2659863237 10.8094010768   0 0 0
Pt 4.2426406871 5.7154760665 10.8094010768   0 0 0
Pt 7.0710678119 5.7154760665 10.8094010768   0 0 0
Pt 9.8994949366 5.7154760665 10.8094010768   0 0 0
Pt 0.0174233676 1.6304450975 13.1129929305  
Pt 2.8298591387 1.6293311760 13.1102118565  
Pt 5.6581663618 1.6290998481 13.0904857328  
Pt 1.4244019082 4.0595818805 13.1206994401  
Pt 4.2456828701 4.0754869225 13.0917455074  
Pt 7.0708814486 4.0757358216 13.0907916003  
Pt 2.8412893535 6.5210654742 13.1064215752  
Pt 5.6586412843 6.5233558240 13.1088242170  
Pt 8.4780716358 6.5199029326 13.1026167467  
Pt -0.0044149982 -0.0125773854 15.4675989301  
Pt 2.8567030627 -0.0130153631 15.4642950272  
Pt 5.6594996375 -0.0006938945 15.4312016478  
Pt 1.4259526282 2.4717426539 15.5114724466  
Pt 4.2606639892 2.4474401075 15.4228010478  
Pt 7.0584424185 2.4478282906 15.4229592495  
Pt 2.8417015229 4.8918029006 15.4311122086  
Pt 5.6598723969 4.8807673021 15.4242920723  
Pt 8.4776779652 4.8918724304 15.4300748503  
H 1.4196955349 1.1842958705 16.5675377052  

