Pt H 
 1.0000000000000000
     8.4683100000000007    0.0000000000000000    0.0000000000000000
     4.2341550000000012    7.3337715871217997    0.0000000000000000
     0.0000000000000000    0.0000000000000000   24.9656619900000010
 Pt  H  
  36   1
Selective dynamics
Cartesian
  0.0000000000000000  0.0000000000000000  8.5000000000000000   F   F   F
  2.8284271247461903  0.0000000000000000  8.5000000000000000   F   F   F
  5.6568542494923806  0.0000000000000000  8.5000000000000000   F   F   F
  1.4142135623730951  2.4494897427831779  8.5000000000000000   F   F   F
  4.2426406871192857  2.4494897427831779  8.5000000000000000   F   F   F
  7.0710678118654755  2.4494897427831779  8.5000000000000000   F   F   F
  2.8284271247461903  4.8989794855663558  8.5000000000000000   F   F   F
  5.6568542494923806  4.8989794855663558  8.5000000000000000   F   F   F
  8.4852813742385713  4.8989794855663558  8.5000000000000000   F   F   F
  1.4142135623730951  0.8164965809277259 10.8094010767585029   F   F   F
  4.2426406871192848  0.8164965809277259 10.8094010767585029   F   F   F
  7.0710678118654755  0.8164965809277259 10.8094010767585029   F   F   F
  2.8284271247461903  3.2659863237109037 10.8094010767585029   F   F   F
  5.6568542494923806  3.2659863237109037 10.8094010767585029   F   F   F
  8.4852813742385713  3.2659863237109037 10.8094010767585029   F   F   F
  4.2426406871192857  5.7154760664940820 10.8094010767585029   F   F   F
  7.0710678118654755  5.7154760664940820 10.8094010767585029   F   F   F
  9.8994949366116671  5.7154760664940820 10.8094010767585029   F   F   F
  0.0469923981478798  1.6428868712766507 13.1298779872236260   T   T   T
  2.8533819868901023  1.6321254717238667 13.1060524125873243   T   T   T
  5.6825270607589644  1.6327036360747473 13.0881923839371748   T   T   T
  1.4445376873953157  4.0578209737828717 13.1304916118059829   T   T   T
  4.2670352960375570  4.0758710007214152 13.0904787051430471   T   T   T
  7.0926644887557009  4.0770142812403751 13.0935437207141216   T   T   T
  2.8603968782593046  6.5210047618211915 13.0928154541972521   T   T   T
  5.6805360647879670  6.5224305006734937 13.0950771892470978   T   T   T
  8.5054703048387506  6.5168254492753928 13.0909905494056904   T   T   T
  0.0483883536426803 -0.0082599796195766 15.4239621552401847   T   T   T
  2.8851821389579788 -0.0170841953750795 15.4193523222098694   T   T   T
  5.7005642604807996 -0.0044974152422778 15.4197968422723051   T   T   T
  1.4879863097210639  2.4248792983641523 15.5528235436172988   T   T   T
  4.3024433028034252  2.4398072728399618 15.4169325895791598   T   T   T
  7.1090430658876489  2.4385081777573658 15.4257954206845227   T   T   T
  2.8766384102788027  4.8911093392003488 15.4206496487230975   T   T   T
  5.7006997507715385  4.8830483286707898 15.4135485335047253   T   T   T
  8.5224203274107779  4.8873503270315855 15.4263387598655139   T   T   T
  1.8382539521343380  2.2313795743293108 17.0547169468511584   T   T   T
