Pt H 
 1.0000000000000000
     8.4683100000000007    0.0000000000000000    0.0000000000000000
     4.2341550000000012    7.3337715871217997    0.0000000000000000
     0.0000000000000000    0.0000000000000000   24.9656619900000010
 Pt  H  
  36   1
Selective dynamics
Cartesian
  0.0000000000000000  0.0000000000000000  8.5000000000000000   F   F   F
  2.8284271247461903  0.0000000000000000  8.5000000000000000   F   F   F
  5.6568542494923806  0.0000000000000000  8.5000000000000000   F   F   F
  1.4142135623730951  2.4494897427831779  8.5000000000000000   F   F   F
  4.2426406871192857  2.4494897427831779  8.5000000000000000   F   F   F
  7.0710678118654755  2.4494897427831779  8.5000000000000000   F   F   F
  2.8284271247461903  4.8989794855663558  8.5000000000000000   F   F   F
  5.6568542494923806  4.8989794855663558  8.5000000000000000   F   F   F
  8.4852813742385713  4.8989794855663558  8.5000000000000000   F   F   F
  1.4142135623730951  0.8164965809277259 10.8094010767585029   F   F   F
  4.2426406871192848  0.8164965809277259 10.8094010767585029   F   F   F
  7.0710678118654755  0.8164965809277259 10.8094010767585029   F   F   F
  2.8284271247461903  3.2659863237109037 10.8094010767585029   F   F   F
  5.6568542494923806  3.2659863237109037 10.8094010767585029   F   F   F
  8.4852813742385713  3.2659863237109037 10.8094010767585029   F   F   F
  4.2426406871192857  5.7154760664940820 10.8094010767585029   F   F   F
  7.0710678118654755  5.7154760664940820 10.8094010767585029   F   F   F
  9.8994949366116671  5.7154760664940820 10.8094010767585029   F   F   F
  0.0141127055785384  1.6411408034811557 13.1002697682639173   T   T   T
  2.8382594607349869  1.6406145463902313 13.0987751364120921   T   T   T
  5.6598814912190578  1.6378692131397965 13.0863659137214032   T   T   T
  1.4266484971399678  4.0684855078787336 13.1219073854774511   T   T   T
  4.2494012042990557  4.0848504737387703 13.0909342407805251   T   T   T
  7.0708939242880113  4.0854297739815673 13.0894479191900146   T   T   T
  2.8393587231172526  6.5281976685386551 13.0937906834072280   T   T   T
  5.6608829588587914  6.5307039210949860 13.0986786663963883   T   T   T
  8.4837868733593069  6.5269377615614319 13.0906236544539869   T   T   T
  0.0066163840593157  0.0000623566143509 15.4188683811082168   T   T   T
  2.8510147684351219  0.0005512766949254 15.4179961556376259   T   T   T
  5.6624769154774004  0.0138282472319958 15.4226611739730295   T   T   T
  1.4280137250777656  2.4468846308270189 15.4979310828910428   T   T   T
  4.2617431951893705  2.4568860427400478 15.4151566689921733   T   T   T
  7.0628258381789255  2.4566513595325215 15.4141349724025307   T   T   T
  2.8434489230599400  4.9098398057949746 15.4200586976482370   T   T   T
  5.6625240958316798  4.9005917179136684 15.4173689434243553   T   T   T
  8.4820530300981485  4.9105091076559901 15.4184159181477636   T   T   T
  1.4279834886474525  2.0205844245439772 16.9979906512778705   T   T   T
