Pt  H 
 1.0000000000000000
     8.4683100000000007    0.0000000000000000    0.0000000000000000
     4.2341550000000012    7.3337715871217997    0.0000000000000000
     0.0000000000000000    0.0000000000000000   24.9656619900000010
 Pt  H  
  36   1
Selective dynamics
Cartesian
  0.0000000000000000  0.0000000000000000  8.5000000000000000   F   F   F
  2.8284271247461903  0.0000000000000000  8.5000000000000000   F   F   F
  5.6568542494923806  0.0000000000000000  8.5000000000000000   F   F   F
  1.4142135623730951  2.4494897427831779  8.5000000000000000   F   F   F
  4.2426406871192857  2.4494897427831779  8.5000000000000000   F   F   F
  7.0710678118654755  2.4494897427831779  8.5000000000000000   F   F   F
  2.8284271247461903  4.8989794855663558  8.5000000000000000   F   F   F
  5.6568542494923806  4.8989794855663558  8.5000000000000000   F   F   F
  8.4852813742385713  4.8989794855663558  8.5000000000000000   F   F   F
  1.4142135623730951  0.8164965809277259 10.8094010767585029   F   F   F
  4.2426406871192848  0.8164965809277259 10.8094010767585029   F   F   F
  7.0710678118654755  0.8164965809277259 10.8094010767585029   F   F   F
  2.8284271247461903  3.2659863237109037 10.8094010767585029   F   F   F
  5.6568542494923806  3.2659863237109037 10.8094010767585029   F   F   F
  8.4852813742385713  3.2659863237109037 10.8094010767585029   F   F   F
  4.2426406871192857  5.7154760664940820 10.8094010767585029   F   F   F
  7.0710678118654755  5.7154760664940820 10.8094010767585029   F   F   F
  9.8994949366116671  5.7154760664940820 10.8094010767585029   F   F   F
  0.0279702179358021  1.6479595265366020 13.1205661717393465   T   T   T
  2.8253863520817450  1.6464847222758818 13.1192503160236029   T   T   T
  5.6600675047539983  1.6404419435358788 13.0857761707299378   T   T   T
  1.4265280888486296  4.0726095383145591 13.1196716863427234   T   T   T
  4.2485504326520394  4.0840065188828767 13.0910850711040041   T   T   T
  7.0719235096680038  4.0847461344206613 13.0898409808372271   T   T   T
  2.8395210353751730  6.5298633271182247 13.0926795576397978   T   T   T
  5.6604811090591447  6.5286743204996744 13.0961315992741749   T   T   T
  8.4826408599976215  6.5291810094515794 13.0889391234997738   T   T   T
  0.0124879229742855  0.0092833741535070 15.4213141998449572   T   T   T
  2.8451158706435824  0.0091038077366051 15.4200036104103653   T   T   T
  5.6621779045857306  0.0130811247161326 15.4191559642844336   T   T   T
  1.4269823301403586  2.4581985812748663 15.5561857336839164   T   T   T
  4.2572006460300775  2.4550270522387603 15.4171389982855622   T   T   T
  7.0671530366796347  2.4552964066588037 15.4146852802933978   T   T   T
  2.8414327486744346  4.9078170752616330 15.4181555773112855   T   T   T
  5.6617475702329889  4.9018127349588223 15.4156856841094072   T   T   T
  8.4837280212922490  4.9073859565593736 15.4169985342985925   T   T   T
  1.4284932896966525  2.4750111575542184 17.1109602434225359   T   T   T
