&CONTROL
   tprnfor          = .true.
   pseudo_dir       = '/users/kbadger1/espresso/pseudo/pslibrary.1.0.0/pbe/PSEUDOPOTENTIALS/'
/
&SYSTEM
   ecutwfc          = 40
   ecutrho          = 410
   nosym            = .true.
   occupations      = 'smearing'
   degauss          = 0.02
   smearing         = 'marzari-vanderbilt'
   nspin            = 1
   input_dft        = 'beef-vdw'
   ntyp             = 2
   nat              = 37
   ibrav            = 0
/
&ELECTRONS
   conv_thr         = 1e-08
   mixing_mode      = 'local-TF'
/
&IONS
/
&CELL
/
&FCP
/
&RISM
/
ATOMIC_SPECIES
Pt 195.084 Pt.pbe-n-kjpaw_psl.1.0.0.UPF
H 1.008 H.pbe-kjpaw_psl.1.0.0.UPF

K_POINTS automatic
5 5 1  0 0 0

CELL_PARAMETERS angstrom
8.48528137423857 0.00000000000000 0.00000000000000
4.24264068711929 7.34846922834953 0.00000000000000
0.00000000000000 0.00000000000000 23.92820323027551

ATOMIC_POSITIONS angstrom
Pt 0.0000000000 0.0000000000 8.5000000000   0 0 0
Pt 2.8284271247 0.0000000000 8.5000000000   0 0 0
Pt 5.6568542495 0.0000000000 8.5000000000   0 0 0
Pt 1.4142135624 2.4494897428 8.5000000000   0 0 0
Pt 4.2426406871 2.4494897428 8.5000000000   0 0 0
Pt 7.0710678119 2.4494897428 8.5000000000   0 0 0
Pt 2.8284271247 4.8989794856 8.5000000000   0 0 0
Pt 5.6568542495 4.8989794856 8.5000000000   0 0 0
Pt 8.4852813742 4.8989794856 8.5000000000   0 0 0
Pt 1.4142135624 0.8164965809 10.8094010768   0 0 0
Pt 4.2426406871 0.8164965809 10.8094010768   0 0 0
Pt 7.0710678119 0.8164965809 10.8094010768   0 0 0
Pt 2.8284271247 3.2659863237 10.8094010768   0 0 0
Pt 5.6568542495 3.2659863237 10.8094010768   0 0 0
Pt 8.4852813742 3.2659863237 10.8094010768   0 0 0
Pt 4.2426406871 5.7154760665 10.8094010768   0 0 0
Pt 7.0710678119 5.7154760665 10.8094010768   0 0 0
Pt 9.8994949366 5.7154760665 10.8094010768   0 0 0
Pt 0.0400075610 1.6282759582 13.1125267846  
Pt 2.8616677880 1.6154597441 13.0990342168  
Pt 5.6917171831 1.6206008547 13.0907326715  
Pt 1.4394176327 4.0501971173 13.1165004333  
Pt 4.2684476623 4.0676129594 13.0918965057  
Pt 7.0990085370 4.0682092400 13.0973700626  
Pt 2.8561793407 6.5167696577 13.0884841863  
Pt 5.6850211358 6.5206781255 13.0929499590  
Pt 8.5140435453 6.5109042264 13.0922941011  
Pt 0.0566237493 -0.0371798466 15.4158907423  
Pt 2.9085040151 -0.0581283405 15.4272562609  
Pt 5.7224249359 -0.0328530256 15.4217241611  
Pt 1.5043058243 2.4031596116 15.5033201989  
Pt 4.3385553879 2.4193531076 15.4211685433  
Pt 7.1407307554 2.4141794441 15.4261300749  
Pt 2.8934247603 4.8735875477 15.4173209201  
Pt 5.7183088904 4.8690879284 15.4187641493  
Pt 8.5541226693 4.8643721958 15.4268959794  
H 2.1463321483 1.9567800698 16.8805077968  

