&CONTROL
   tprnfor          = .true.
   pseudo_dir       = '/users/kbadger1/espresso/pseudo/pslibrary.1.0.0/pbe/PSEUDOPOTENTIALS/'
/
&SYSTEM
   ecutwfc          = 40
   ecutrho          = 410
   nosym            = .true.
   occupations      = 'smearing'
   degauss          = 0.02
   smearing         = 'marzari-vanderbilt'
   nspin            = 1
   input_dft        = 'beef-vdw'
   ntyp             = 2
   nat              = 37
   ibrav            = 0
/
&ELECTRONS
   mixing_mode      = 'local-TF'
/
&IONS
/
&CELL
/
&FCP
/
&RISM
/
ATOMIC_SPECIES
Pt 195.084 Pt.pbe-n-kjpaw_psl.1.0.0.UPF
H 1.008 H.pbe-kjpaw_psl.1.0.0.UPF

K_POINTS automatic
5 5 1  0 0 0

CELL_PARAMETERS angstrom
8.46831000000000 0.00000000000000 0.00000000000000
4.23415500000000 7.33377158712180 0.00000000000000
0.00000000000000 0.00000000000000 24.96566199000000

ATOMIC_POSITIONS angstrom
Pt 0.0000000000 0.0000000000 8.5000000000   0 0 0
Pt 2.8284271247 0.0000000000 8.5000000000   0 0 0
Pt 5.6568542495 0.0000000000 8.5000000000   0 0 0
Pt 1.4142135624 2.4494897428 8.5000000000   0 0 0
Pt 4.2426406871 2.4494897428 8.5000000000   0 0 0
Pt 7.0710678119 2.4494897428 8.5000000000   0 0 0
Pt 2.8284271247 4.8989794856 8.5000000000   0 0 0
Pt 5.6568542495 4.8989794856 8.5000000000   0 0 0
Pt 8.4852813742 4.8989794856 8.5000000000   0 0 0
Pt 1.4142135624 0.8164965809 10.8094010768   0 0 0
Pt 4.2426406871 0.8164965809 10.8094010768   0 0 0
Pt 7.0710678119 0.8164965809 10.8094010768   0 0 0
Pt 2.8284271247 3.2659863237 10.8094010768   0 0 0
Pt 5.6568542495 3.2659863237 10.8094010768   0 0 0
Pt 8.4852813742 3.2659863237 10.8094010768   0 0 0
Pt 4.2426406871 5.7154760665 10.8094010768   0 0 0
Pt 7.0710678119 5.7154760665 10.8094010768   0 0 0
Pt 9.8994949366 5.7154760665 10.8094010768   0 0 0
Pt 0.0024865423 1.6783114526 13.0519920986  
Pt 2.7988214389 1.6250464025 13.0711497814  
Pt 5.6202810991 1.6316510367 13.0721517249  
Pt 1.4026526672 4.0747051873 13.0750544603  
Pt 4.2152652484 4.0639855518 13.0735947279  
Pt 7.0190164537 4.0608393214 13.0641761134  
Pt 2.8278890213 6.5306650874 13.0290918086  
Pt 5.6799922296 6.5092943340 13.0524640927  
Pt 8.4552555818 6.5252492463 13.0733547174  
Pt 0.1167999809 0.0863903240 15.2676543620  
Pt 2.9457033809 0.0767056354 15.5017391626  
Pt 5.7350656762 0.0305404314 15.3498192441  
Pt 1.5214075328 2.5484411684 15.5041962670  
Pt 4.2971237359 2.4981060261 15.4260352166  
Pt 7.1033232270 2.4635140357 15.3823570938  
Pt 2.8796383512 4.9824971673 15.3513329306  
Pt 5.6695853938 4.9487606333 15.3827526500  
Pt 8.4649996584 4.9087691358 15.3174882229  
H 2.8007253767 1.6685900387 16.5124622175  

