&CONTROL
   tprnfor          = .true.
   pseudo_dir       = '/users/kbadger1/espresso/pseudo/pslibrary.1.0.0/pbe/PSEUDOPOTENTIALS/'
/
&SYSTEM
   ecutwfc          = 40
   ecutrho          = 410
   nosym            = .true.
   occupations      = 'smearing'
   degauss          = 0.001
   smearing         = 'marzari-vanderbilt'
   nspin            = 1
   input_dft        = 'beef-vdw'
   ntyp             = 3
   nat              = 39
   ibrav            = 0
/
&ELECTRONS
   conv_thr         = 1e-08
   mixing_mode      = 'local-TF'
/
&IONS
/
&CELL
/
&FCP
/
&RISM
/
ATOMIC_SPECIES
Pt 195.084 Pt.pbe-n-kjpaw_psl.1.0.0.UPF
C 12.011 C.pbe-n-kjpaw_psl.1.0.0.UPF
H 1.008 H.pbe-kjpaw_psl.1.0.0.UPF

K_POINTS automatic
5 5 1  0 0 0

CELL_PARAMETERS angstrom
8.48528137423857 0.00000000000000 0.00000000000000
4.24264068711929 7.34846922834953 0.00000000000000
0.00000000000000 0.00000000000000 23.92820323027551

ATOMIC_POSITIONS angstrom
Pt 0.0000000000 0.0000000000 8.5000000000   0 0 0
Pt 2.8284271247 0.0000000000 8.5000000000   0 0 0
Pt 5.6568542495 0.0000000000 8.5000000000   0 0 0
Pt 1.4142135624 2.4494897428 8.5000000000   0 0 0
Pt 4.2426406871 2.4494897428 8.5000000000   0 0 0
Pt 7.0710678119 2.4494897428 8.5000000000   0 0 0
Pt 2.8284271247 4.8989794856 8.5000000000   0 0 0
Pt 5.6568542495 4.8989794856 8.5000000000   0 0 0
Pt 8.4852813742 4.8989794856 8.5000000000   0 0 0
Pt 1.4142135624 0.8164965809 10.8094010768   0 0 0
Pt 4.2426406871 0.8164965809 10.8094010768   0 0 0
Pt 7.0710678119 0.8164965809 10.8094010768   0 0 0
Pt 2.8284271247 3.2659863237 10.8094010768   0 0 0
Pt 5.6568542495 3.2659863237 10.8094010768   0 0 0
Pt 8.4852813742 3.2659863237 10.8094010768   0 0 0
Pt 4.2426406871 5.7154760665 10.8094010768   0 0 0
Pt 7.0710678119 5.7154760665 10.8094010768   0 0 0
Pt 9.8994949366 5.7154760665 10.8094010768   0 0 0
Pt 0.0318313977 1.6252042413 13.1711082835  
Pt 2.7948522548 1.6251603382 13.1709001728  
Pt 5.6561849044 1.6447422867 13.0492349893  
Pt 1.4135030556 4.0554413443 13.1419396277  
Pt 4.2203102846 4.0884287547 13.1032886874  
Pt 7.0921126247 4.0885186193 13.1034151043  
Pt 2.8445407820 6.5325064425 13.1271496028  
Pt 5.6561480459 6.5423240325 13.1270254524  
Pt 8.4678920991 6.5325058730 13.1270575855  
Pt -0.1238665263 -0.0864525347 15.5490175604  
Pt 2.9502666451 -0.0864723314 15.5485982579  
Pt 5.6558323017 0.0470303558 15.3792542321  
Pt 1.4130780260 2.4699981459 15.8640447869  
Pt 4.2826125652 2.4331042501 15.3922493125  
Pt 7.0288886807 2.4331259927 15.3924749156  
Pt 2.8789553619 4.8840419624 15.5272686168  
Pt 5.6558350621 4.8415110119 15.3847306488  
Pt 8.4327248452 4.8840485083 15.5276038279  
C 1.4133447678 0.5513526440 16.4110600625  
H 1.4131473980 2.8265698207 17.4142872460  
C 1.4133736217 4.4875993216 16.6815466823  

