&CONTROL
   tprnfor          = .true.
   pseudo_dir       = '/users/kbadger1/espresso/pseudo/pslibrary.1.0.0/pbe/PSEUDOPOTENTIALS/'
/
&SYSTEM
   ecutwfc          = 40
   ecutrho          = 410
   nosym            = .true.
   occupations      = 'smearing'
   degauss          = 0.02
   smearing         = 'marzari-vanderbilt'
   nspin            = 1
   input_dft        = 'beef-vdw'
   ntyp             = 2
   nat              = 37
   ibrav            = 0
/
&ELECTRONS
   mixing_mode      = 'local-TF'
/
&IONS
/
&CELL
/
&FCP
/
&RISM
/
ATOMIC_SPECIES
Pt 195.084 Pt.pbe-n-kjpaw_psl.1.0.0.UPF
H 1.008 H.pbe-kjpaw_psl.1.0.0.UPF

K_POINTS automatic
5 5 1  0 0 0

CELL_PARAMETERS angstrom
8.48528137423857 0.00000000000000 0.00000000000000
4.24264068711929 7.34846922834953 0.00000000000000
0.00000000000000 0.00000000000000 23.92820323027551

ATOMIC_POSITIONS angstrom
Pt 0.0000000000 0.0000000000 8.5000000000   0 0 0
Pt 2.8284271247 0.0000000000 8.5000000000   0 0 0
Pt 5.6568542495 0.0000000000 8.5000000000   0 0 0
Pt 1.4142135624 2.4494897428 8.5000000000   0 0 0
Pt 4.2426406871 2.4494897428 8.5000000000   0 0 0
Pt 7.0710678119 2.4494897428 8.5000000000   0 0 0
Pt 2.8284271247 4.8989794856 8.5000000000   0 0 0
Pt 5.6568542495 4.8989794856 8.5000000000   0 0 0
Pt 8.4852813742 4.8989794856 8.5000000000   0 0 0
Pt 1.4142135624 0.8164965809 10.8094010768   0 0 0
Pt 4.2426406871 0.8164965809 10.8094010768   0 0 0
Pt 7.0710678119 0.8164965809 10.8094010768   0 0 0
Pt 2.8284271247 3.2659863237 10.8094010768   0 0 0
Pt 5.6568542495 3.2659863237 10.8094010768   0 0 0
Pt 8.4852813742 3.2659863237 10.8094010768   0 0 0
Pt 4.2426406871 5.7154760665 10.8094010768   0 0 0
Pt 7.0710678119 5.7154760665 10.8094010768   0 0 0
Pt 9.8994949366 5.7154760665 10.8094010768   0 0 0
Pt 0.0079089164 1.6351671117 13.1040912879  
Pt 2.8283337940 1.6335711359 13.1075415841  
Pt 5.6608830185 1.6342194637 13.0871312354  
Pt 1.4172667634 4.0777855048 13.0997655245  
Pt 4.2452288867 4.0862475549 13.0870699587  
Pt 7.0753780721 4.0855424619 13.0881915253  
Pt 2.8355021592 6.5366748818 13.0942311792  
Pt 5.6621602804 6.5386326950 13.1041153807  
Pt 8.4821787047 6.5379021577 13.0998012446  
Pt -0.0181566149 -0.0090879248 15.4500106786  
Pt 2.8718231375 -0.0128113382 15.4726631689  
Pt 5.6701404836 0.0081432323 15.4206643308  
Pt 1.4236191406 2.4955242150 15.4725339059  
Pt 4.2699340473 2.4666428899 15.4137742065  
Pt 7.0710410326 2.4616053256 15.4165202069  
Pt 2.8410727232 4.9084484649 15.4205310233  
Pt 5.6661345734 4.8948891051 15.4165554469  
Pt 8.4942138837 4.9054626924 15.4198763940  
H 1.5911433135 0.9201157148 16.3551082823  

