Pt H                                    
   1.00000000000000     
     8.4683100000000007    0.0000000000000000    0.0000000000000000
     4.2341550000000012    7.3337715871217997    0.0000000000000000
     0.0000000000000000    0.0000000000000000   24.9656619900000010
  Pt/3ed90460ade  H/030f79b5d3ab
              36               1
Selective dynamics
Direct
  0.0000000000000000  0.0000000000000000  0.3404676392480468   F   F   F
  0.3340013680115845  0.0000000000000000  0.3404676392480468   F   F   F
  0.6680027360231691  0.0000000000000000  0.3404676392480468   F   F   F
  0.0000000000000000  0.3340013680115845  0.3404676392480468   F   F   F
  0.3340013680115845  0.3340013680115845  0.3404676392480468   F   F   F
  0.6680027360231691  0.3340013680115845  0.3404676392480468   F   F   F
  0.0000000000000000  0.6680027360231691  0.3404676392480468   F   F   F
  0.3340013680115845  0.6680027360231691  0.3404676392480468   F   F   F
  0.6680027360231691  0.6680027360231691  0.3404676392480468   F   F   F
  0.1113337893371948  0.1113337893371948  0.4329707372105034   F   F   F
  0.4453351573487794  0.1113337893371948  0.4329707372105034   F   F   F
  0.7793365253603639  0.1113337893371948  0.4329707372105034   F   F   F
  0.1113337893371948  0.4453351573487794  0.4329707372105034   F   F   F
  0.4453351573487794  0.4453351573487794  0.4329707372105034   F   F   F
  0.7793365253603639  0.4453351573487794  0.4329707372105034   F   F   F
  0.1113337893371948  0.7793365253603639  0.4329707372105034   F   F   F
  0.4453351573487794  0.7793365253603639  0.4329707372105034   F   F   F
  0.7793365253603639  0.7793365253603639  0.4329707372105034   F   F   F
  0.8913132926387064  0.2240996451822852  0.5252367217199421   T   T   T
  0.2237666479153475  0.2238142624910537  0.5253197379229633   T   T   T
  0.5576537108049493  0.2238807211285163  0.5241790336985872   T   T   T
  0.8912695972511173  0.5564453380526189  0.5249522004047051   T   T   T
  0.2238148677353493  0.5577442164360278  0.5241852283604800   T   T   T
  0.5575286180905010  0.5575915782976182  0.5242202065852055   T   T   T
  0.8910873154622436  0.8911314125006058  0.5247865408401111   T   T   T
  0.2240467016737000  0.8913668083196242  0.5252329033764909   T   T   T
  0.5563750921999642  0.8913155651087976  0.5249400312101713   T   T   T
  0.0001922014472910  0.0003441304122092  0.6192304270943083   T   T   T
  0.3410918170761050  0.0000210144643376  0.6200626444319823   T   T   T
  0.6693891695185386  0.0030420837452283  0.6179367450481408   T   T   T
  0.9998782720448531  0.3412562812048279  0.6200716567133284   T   T   T
  0.3373660167188532  0.3375243896677276  0.6174457978679229   T   T   T
  0.6675011676172602  0.3368855989220378  0.6175785651834289   T   T   T
  0.0029088311238894  0.6695383009528442  0.6179492790236125   T   T   T
  0.3367108966364114  0.6676804837284607  0.6175841336683519   T   T   T
  0.6692265379683917  0.6693336957502680  0.6178525639219927   T   T   T
  0.1264722789558235  0.1265672249609793  0.6554143846600908   T   T   T
 
  0.00000000E+00  0.00000000E+00  0.00000000E+00
  0.00000000E+00  0.00000000E+00  0.00000000E+00
  0.00000000E+00  0.00000000E+00  0.00000000E+00
  0.00000000E+00  0.00000000E+00  0.00000000E+00
  0.00000000E+00  0.00000000E+00  0.00000000E+00
  0.00000000E+00  0.00000000E+00  0.00000000E+00
  0.00000000E+00  0.00000000E+00  0.00000000E+00
  0.00000000E+00  0.00000000E+00  0.00000000E+00
  0.00000000E+00  0.00000000E+00  0.00000000E+00
  0.00000000E+00  0.00000000E+00  0.00000000E+00
  0.00000000E+00  0.00000000E+00  0.00000000E+00
  0.00000000E+00  0.00000000E+00  0.00000000E+00
  0.00000000E+00  0.00000000E+00  0.00000000E+00
  0.00000000E+00  0.00000000E+00  0.00000000E+00
  0.00000000E+00  0.00000000E+00  0.00000000E+00
  0.00000000E+00  0.00000000E+00  0.00000000E+00
  0.00000000E+00  0.00000000E+00  0.00000000E+00
  0.00000000E+00  0.00000000E+00  0.00000000E+00
  0.00000000E+00  0.00000000E+00  0.00000000E+00
  0.00000000E+00  0.00000000E+00  0.00000000E+00
  0.00000000E+00  0.00000000E+00  0.00000000E+00
  0.00000000E+00  0.00000000E+00  0.00000000E+00
  0.00000000E+00  0.00000000E+00  0.00000000E+00
  0.00000000E+00  0.00000000E+00  0.00000000E+00
  0.00000000E+00  0.00000000E+00  0.00000000E+00
  0.00000000E+00  0.00000000E+00  0.00000000E+00
  0.00000000E+00  0.00000000E+00  0.00000000E+00
  0.00000000E+00  0.00000000E+00  0.00000000E+00
  0.00000000E+00  0.00000000E+00  0.00000000E+00
  0.00000000E+00  0.00000000E+00  0.00000000E+00
  0.00000000E+00  0.00000000E+00  0.00000000E+00
  0.00000000E+00  0.00000000E+00  0.00000000E+00
  0.00000000E+00  0.00000000E+00  0.00000000E+00
  0.00000000E+00  0.00000000E+00  0.00000000E+00
  0.00000000E+00  0.00000000E+00  0.00000000E+00
  0.00000000E+00  0.00000000E+00  0.00000000E+00
  0.00000000E+00  0.00000000E+00  0.00000000E+00
