Pt H 
 1.0000000000000000
     8.4683100000000007    0.0000000000000000    0.0000000000000000
     4.2341550000000012    7.3337715871217997    0.0000000000000000
     0.0000000000000000    0.0000000000000000   24.9656619900000010
 Pt  H  
  36   1
Selective dynamics
Cartesian
  0.0000000000000000  0.0000000000000000  8.5000000000000000   F   F   F
  2.8284271247461903  0.0000000000000000  8.5000000000000000   F   F   F
  5.6568542494923806  0.0000000000000000  8.5000000000000000   F   F   F
  1.4142135623730951  2.4494897427831779  8.5000000000000000   F   F   F
  4.2426406871192857  2.4494897427831779  8.5000000000000000   F   F   F
  7.0710678118654755  2.4494897427831779  8.5000000000000000   F   F   F
  2.8284271247461903  4.8989794855663558  8.5000000000000000   F   F   F
  5.6568542494923806  4.8989794855663558  8.5000000000000000   F   F   F
  8.4852813742385713  4.8989794855663558  8.5000000000000000   F   F   F
  1.4142135623730951  0.8164965809277259 10.8094010767585029   F   F   F
  4.2426406871192848  0.8164965809277259 10.8094010767585029   F   F   F
  7.0710678118654755  0.8164965809277259 10.8094010767585029   F   F   F
  2.8284271247461903  3.2659863237109037 10.8094010767585029   F   F   F
  5.6568542494923806  3.2659863237109037 10.8094010767585029   F   F   F
  8.4852813742385713  3.2659863237109037 10.8094010767585029   F   F   F
  4.2426406871192857  5.7154760664940820 10.8094010767585029   F   F   F
  7.0710678118654755  5.7154760664940820 10.8094010767585029   F   F   F
  9.8994949366116671  5.7154760664940820 10.8094010767585029   F   F   F
  0.0284799023320756  1.6434956105219216 13.1128824591957294   T   T   T
  2.8425896208058079  1.6414026790495202 13.1149550136601185   T   T   T
  5.6703301705166105  1.6418900715166693 13.0864765775637881   T   T   T
  1.4353130534397962  4.0808430099966859 13.1057791962106762   T   T   T
  4.2569091453356531  4.0903686873800602 13.0866312313987461   T   T   T
  7.0822543410686984  4.0892492741374591 13.0875044859341649   T   T   T
  2.8508821502985806  6.5353542333886718 13.1016433955155236   T   T   T
  5.6714821525309738  6.5370805725579055 13.1127871317237279   T   T   T
  8.4855250136110900  6.5367047665542914 13.1054753842131451   T   T   T
  0.0030847229435897  0.0025237738393102 15.4594975367597893   T   T   T
  2.8885602239629766  0.0001541152814607 15.4802743935144651   T   T   T
  5.6814756522258048  0.0223099473363966 15.4271999080726552   T   T   T
  1.4439011592849871  2.5026956190267926 15.4804993910842335   T   T   T
  4.2860505951740029  2.4753267789058047 15.4149430867163506   T   T   T
  7.0790326558486649  2.4706420334849675 15.4182577106387324   T   T   T
  2.8595618283657522  4.9102409680177699 15.4275128270676714   T   T   T
  5.6784349116763515  4.8966161608435099 15.4183967315511339   T   T   T
  8.5012803982725771  4.9087404401965582 15.4250982705312882   T   T   T
  1.6069117130090842  0.9282151182797054 16.3628539908075830   T   T   T
