Pt H 
 1.0000000000000000
     8.4683100000000007    0.0000000000000000    0.0000000000000000
     4.2341550000000012    7.3337715871217997    0.0000000000000000
     0.0000000000000000    0.0000000000000000   24.9656619900000010
 Pt  H  
  36   1
Selective dynamics
Cartesian
  0.0000000000000000  0.0000000000000000  8.5000000000000000   F   F   F
  2.8284271247461903  0.0000000000000000  8.5000000000000000   F   F   F
  5.6568542494923806  0.0000000000000000  8.5000000000000000   F   F   F
  1.4142135623730951  2.4494897427831779  8.5000000000000000   F   F   F
  4.2426406871192857  2.4494897427831779  8.5000000000000000   F   F   F
  7.0710678118654755  2.4494897427831779  8.5000000000000000   F   F   F
  2.8284271247461903  4.8989794855663558  8.5000000000000000   F   F   F
  5.6568542494923806  4.8989794855663558  8.5000000000000000   F   F   F
  8.4852813742385713  4.8989794855663558  8.5000000000000000   F   F   F
  1.4142135623730951  0.8164965809277259 10.8094010767585029   F   F   F
  4.2426406871192848  0.8164965809277259 10.8094010767585029   F   F   F
  7.0710678118654755  0.8164965809277259 10.8094010767585029   F   F   F
  2.8284271247461903  3.2659863237109037 10.8094010767585029   F   F   F
  5.6568542494923806  3.2659863237109037 10.8094010767585029   F   F   F
  8.4852813742385713  3.2659863237109037 10.8094010767585029   F   F   F
  4.2426406871192857  5.7154760664940820 10.8094010767585029   F   F   F
  7.0710678118654755  5.7154760664940820 10.8094010767585029   F   F   F
  9.8994949366116671  5.7154760664940820 10.8094010767585029   F   F   F
  0.0147238071214285  1.6527466598676193 13.1090170845348357   T   T   T
  2.8290986831022407  1.6462554803352145 13.1279678887533287   T   T   T
  5.6487763845538437  1.6489187265187459 13.1000589312621223   T   T   T
  1.4200748607361793  4.0829700160691997 13.1089804234934828   T   T   T
  4.2421035776400524  4.0845275675025139 13.1011812882768908   T   T   T
  7.0642874869098220  4.0914375198400394 13.0904632826962715   T   T   T
  2.8315504884532730  6.5355974769634582 13.0847017496844789   T   T   T
  5.6583574498772355  6.5395599226347558 13.1036839489587393   T   T   T
  8.4727384830769470  6.5369300673601947 13.1015071982668658   T   T   T
 -0.0078445590507906  0.0153945281495187 15.4159931454757775   T   T   T
  2.8328054872637165  0.0004068884550367 15.4836202679593775   T   T   T
  5.6566262646572039  0.0181172785613973 15.4187106261355353   T   T   T
  1.3913696052627722  2.4784702431376546 15.5098714728421943   T   T   T
  4.2564178674075608  2.4702581066066371 15.4851695826475879   T   T   T
  7.0562612696073348  2.4676667278510980 15.4225538925996215   T   T   T
  2.8276296134768524  4.9254132511743673 15.4172724969290869   T   T   T
  5.6475667277478969  4.9124943772853591 15.4194526122367641   T   T   T
  8.4696677160112852  4.9154434373719988 15.4229969027840159   T   T   T
  2.6762271950916747  1.7730635790634557 16.4432624017185454   T   T   T
