&CONTROL
   tprnfor          = .true.
   pseudo_dir       = '/users/kbadger1/espresso/pseudo/pslibrary.1.0.0/pbe/PSEUDOPOTENTIALS/'
/
&SYSTEM
   ecutwfc          = 40
   ecutrho          = 410
   nosym            = .true.
   occupations      = 'smearing'
   degauss          = 0.001
   smearing         = 'marzari-vanderbilt'
   nspin            = 1
   input_dft        = 'beef-vdw'
   ntyp             = 3
   nat              = 39
   ibrav            = 0
/
&ELECTRONS
   mixing_mode      = 'local-TF'
/
&IONS
/
&CELL
/
&FCP
/
&RISM
/
ATOMIC_SPECIES
Pt 195.084 Pt.pbe-n-kjpaw_psl.1.0.0.UPF
O 15.999 O.pbe-nl-kjpaw_psl.1.0.0.UPF
H 1.008 H.pbe-kjpaw_psl.1.0.0.UPF

K_POINTS automatic
5 5 1  0 0 0

CELL_PARAMETERS angstrom
8.48528137423857 0.00000000000000 0.00000000000000
4.24264068711929 7.34846922834953 0.00000000000000
0.00000000000000 0.00000000000000 23.92820323027551

ATOMIC_POSITIONS angstrom
Pt 0.0000000000 0.0000000000 8.5000000000   0 0 0
Pt 2.8284271247 0.0000000000 8.5000000000   0 0 0
Pt 5.6568542495 0.0000000000 8.5000000000   0 0 0
Pt 1.4142135624 2.4494897428 8.5000000000   0 0 0
Pt 4.2426406871 2.4494897428 8.5000000000   0 0 0
Pt 7.0710678119 2.4494897428 8.5000000000   0 0 0
Pt 2.8284271247 4.8989794856 8.5000000000   0 0 0
Pt 5.6568542495 4.8989794856 8.5000000000   0 0 0
Pt 8.4852813742 4.8989794856 8.5000000000   0 0 0
Pt 1.4142135624 0.8164965809 10.8094010768   0 0 0
Pt 4.2426406871 0.8164965809 10.8094010768   0 0 0
Pt 7.0710678119 0.8164965809 10.8094010768   0 0 0
Pt 2.8284271247 3.2659863237 10.8094010768   0 0 0
Pt 5.6568542495 3.2659863237 10.8094010768   0 0 0
Pt 8.4852813742 3.2659863237 10.8094010768   0 0 0
Pt 4.2426406871 5.7154760665 10.8094010768   0 0 0
Pt 7.0710678119 5.7154760665 10.8094010768   0 0 0
Pt 9.8994949366 5.7154760665 10.8094010768   0 0 0
Pt -0.0491318137 1.6630898516 13.0844560601  
Pt 2.7932980502 1.6766632088 13.1393835268  
Pt 5.5877754850 1.6609135067 13.1652069043  
Pt 1.3669259627 4.1193604104 13.0966328521  
Pt 4.1917494447 4.1036481884 13.1316777304  
Pt 7.0265259840 4.1138087142 13.0918969155  
Pt 2.7696889292 6.5786667250 13.1098686370  
Pt 5.6095915143 6.5668306910 13.0817494471  
Pt 8.4462671897 6.5745119466 13.1262012319  
Pt -0.0830921806 0.0619548062 15.4295486152  
Pt 2.7242787456 0.0474903583 15.4210818384  
Pt 5.5757642974 0.0427886305 15.5616663409  
Pt 1.3026679856 2.5134463217 15.4097929538  
Pt 4.1670053991 2.5228776552 15.5639289498  
Pt 6.9981290563 2.5124702071 15.4213519616  
Pt 2.7323369765 4.9797066660 15.4200789135  
Pt 5.5787260872 4.9788613533 15.4160997462  
Pt 8.3906839708 4.9581457604 15.4313263973  
O 3.9764967580 2.5747290939 17.5667985189  
H 4.7799220999 2.9921870097 17.9218151090  
H 5.5427710556 0.0226445839 17.1133796562  

