&CONTROL
   tprnfor          = .true.
   pseudo_dir       = '/users/kbadger1/espresso/pseudo/pslibrary.1.0.0/pbe/PSEUDOPOTENTIALS/'
/
&SYSTEM
   ecutwfc          = 40
   ecutrho          = 410
   nosym            = .true.
   occupations      = 'smearing'
   degauss          = 0.02
   smearing         = 'marzari-vanderbilt'
   nspin            = 1
   input_dft        = 'beef-vdw'
   ntyp             = 3
   nat              = 38
   ibrav            = 0
/
&ELECTRONS
   mixing_mode      = 'local-TF'
/
&IONS
/
&CELL
/
&FCP
/
&RISM
/
ATOMIC_SPECIES
Pt 195.084 Pt.pbe-n-kjpaw_psl.1.0.0.UPF
H 1.008 H.pbe-kjpaw_psl.1.0.0.UPF
C 12.011 C.pbe-n-kjpaw_psl.1.0.0.UPF

K_POINTS automatic
5 5 1  0 0 0

CELL_PARAMETERS angstrom
8.46831000000000 0.00000000000000 0.00000000000000
4.23415500000000 7.33377158712180 0.00000000000000
0.00000000000000 0.00000000000000 24.96566199000000

ATOMIC_POSITIONS angstrom
Pt 0.0000000000 0.0000000000 8.5000000000   0 0 0
Pt 2.8284271247 0.0000000000 8.5000000000   0 0 0
Pt 5.6568542495 0.0000000000 8.5000000000   0 0 0
Pt 1.4142135624 2.4494897428 8.5000000000   0 0 0
Pt 4.2426406871 2.4494897428 8.5000000000   0 0 0
Pt 7.0710678119 2.4494897428 8.5000000000   0 0 0
Pt 2.8284271247 4.8989794856 8.5000000000   0 0 0
Pt 5.6568542495 4.8989794856 8.5000000000   0 0 0
Pt 8.4852813742 4.8989794856 8.5000000000   0 0 0
Pt 1.4142135624 0.8164965809 10.8094010768   0 0 0
Pt 4.2426406871 0.8164965809 10.8094010768   0 0 0
Pt 7.0710678119 0.8164965809 10.8094010768   0 0 0
Pt 2.8284271247 3.2659863237 10.8094010768   0 0 0
Pt 5.6568542495 3.2659863237 10.8094010768   0 0 0
Pt 8.4852813742 3.2659863237 10.8094010768   0 0 0
Pt 4.2426406871 5.7154760665 10.8094010768   0 0 0
Pt 7.0710678119 5.7154760665 10.8094010768   0 0 0
Pt 9.8994949366 5.7154760665 10.8094010768   0 0 0
Pt 0.0193701683 1.6445718525 13.1267506553  
Pt 2.8248473661 1.6437285258 13.1239352887  
Pt 5.6566207014 1.6480361904 13.0848982567  
Pt 1.4228852306 4.0758358357 13.1389304414  
Pt 4.2403832907 4.0948915988 13.0852722835  
Pt 7.0730138966 4.0950339844 13.0847121237  
Pt 2.8471816851 6.5490062856 13.1241002224  
Pt 5.6568107206 6.5464891188 13.1176634538  
Pt 8.4682751943 6.5480020914 13.1208373024  
Pt -0.0652907476 0.0061799802 15.5529726873  
Pt 2.9071931960 0.0069868461 15.5501418863  
Pt 5.6551666944 0.0480610856 15.4394295683  
Pt 1.4216398547 2.6401560212 15.5574653416  
Pt 4.2741915274 2.5051983983 15.4083426110  
Pt 7.0374239601 2.5053969194 15.4091634338  
Pt 2.8445143845 4.9534694571 15.4414871854  
Pt 5.6559428671 4.8996010235 15.4063485180  
Pt 8.4667648260 4.9539658151 15.4407695400  
H 1.4223259511 2.0274097200 17.1927153122  
C 1.4213200319 0.8571979576 16.4731166329  

