&CONTROL
   tprnfor          = .true.
   pseudo_dir       = '/users/kbadger1/espresso/pseudo/pslibrary.1.0.0/pbe/PSEUDOPOTENTIALS/'
/
&SYSTEM
   ecutwfc          = 40
   ecutrho          = 410
   nosym            = .true.
   occupations      = 'smearing'
   degauss          = 0.02
   smearing         = 'marzari-vanderbilt'
   nspin            = 1
   input_dft        = 'beef-vdw'
   ntyp             = 3
   nat              = 38
   ibrav            = 0
/
&ELECTRONS
   mixing_mode      = 'local-TF'
/
&IONS
/
&CELL
/
&FCP
/
&RISM
/
ATOMIC_SPECIES
Pt 195.084 Pt.pbe-n-kjpaw_psl.1.0.0.UPF
C 12.011 C.pbe-n-kjpaw_psl.1.0.0.UPF
H 1.008 H.pbe-kjpaw_psl.1.0.0.UPF

K_POINTS automatic
5 5 1  0 0 0

CELL_PARAMETERS angstrom
8.48528137423857 0.00000000000000 0.00000000000000
4.24264068711929 7.34846922834953 0.00000000000000
0.00000000000000 0.00000000000000 23.92820323027551

ATOMIC_POSITIONS angstrom
Pt 0.0000000000 0.0000000000 8.5000000000   0 0 0
Pt 2.8284271247 0.0000000000 8.5000000000   0 0 0
Pt 5.6568542495 0.0000000000 8.5000000000   0 0 0
Pt 1.4142135624 2.4494897428 8.5000000000   0 0 0
Pt 4.2426406871 2.4494897428 8.5000000000   0 0 0
Pt 7.0710678119 2.4494897428 8.5000000000   0 0 0
Pt 2.8284271247 4.8989794856 8.5000000000   0 0 0
Pt 5.6568542495 4.8989794856 8.5000000000   0 0 0
Pt 8.4852813742 4.8989794856 8.5000000000   0 0 0
Pt 1.4142135624 0.8164965809 10.8094010768   0 0 0
Pt 4.2426406871 0.8164965809 10.8094010768   0 0 0
Pt 7.0710678119 0.8164965809 10.8094010768   0 0 0
Pt 2.8284271247 3.2659863237 10.8094010768   0 0 0
Pt 5.6568542495 3.2659863237 10.8094010768   0 0 0
Pt 8.4852813742 3.2659863237 10.8094010768   0 0 0
Pt 4.2426406871 5.7154760665 10.8094010768   0 0 0
Pt 7.0710678119 5.7154760665 10.8094010768   0 0 0
Pt 9.8994949366 5.7154760665 10.8094010768   0 0 0
Pt 0.0078963718 1.6373104753 13.1195018693  
Pt 2.8182798956 1.6373592015 13.1192780190  
Pt 5.6557779569 1.6425221961 13.0804529351  
Pt 1.4131451144 4.0729526626 13.1301855324  
Pt 4.2373657979 4.0933463381 13.0814610832  
Pt 7.0741111215 4.0933364885 13.0816246179  
Pt 2.8401596877 6.5523531916 13.1119828546  
Pt 5.6556908539 6.5509929187 13.1112031665  
Pt 8.4714643901 6.5523907686 13.1118809268  
Pt -0.0786529868 -0.0076444705 15.5411325020  
Pt 2.9026717672 -0.0074954113 15.5404316139  
Pt 5.6547033160 0.0340336957 15.4246458194  
Pt 1.4119839342 2.6400324986 15.5464066926  
Pt 4.2698597303 2.4964950167 15.3987368088  
Pt 7.0393277887 2.4964522041 15.3990497126  
Pt 2.8379320708 4.9519561161 15.4265034608  
Pt 5.6545219208 4.8957971452 15.3973176261  
Pt 8.4712524843 4.9519631886 15.4266347880  
C 1.4121857204 0.8523938498 16.4468289379  
H 1.4116502971 2.0018169756 17.1794179552  

