&CONTROL
   tprnfor          = .true.
   pseudo_dir       = '/users/kbadger1/espresso/pseudo/pslibrary.1.0.0/pbe/PSEUDOPOTENTIALS/'
/
&SYSTEM
   ecutwfc          = 40
   ecutrho          = 410
   nosym            = .true.
   occupations      = 'smearing'
   degauss          = 0.02
   smearing         = 'marzari-vanderbilt'
   nspin            = 1
   input_dft        = 'beef-vdw'
   ntyp             = 2
   nat              = 37
   ibrav            = 0
/
&ELECTRONS
   mixing_mode      = 'local-TF'
/
&IONS
/
&CELL
/
&FCP
/
&RISM
/
ATOMIC_SPECIES
Pt 195.084 Pt.pbe-n-kjpaw_psl.1.0.0.UPF
H 1.008 H.pbe-kjpaw_psl.1.0.0.UPF

K_POINTS automatic
5 5 1  0 0 0

CELL_PARAMETERS angstrom
8.48528137423857 0.00000000000000 0.00000000000000
4.24264068711929 7.34846922834953 0.00000000000000
0.00000000000000 0.00000000000000 23.92820323027551

ATOMIC_POSITIONS angstrom
Pt 0.0000000000 0.0000000000 8.5000000000   0 0 0
Pt 2.8284271247 0.0000000000 8.5000000000   0 0 0
Pt 5.6568542495 0.0000000000 8.5000000000   0 0 0
Pt 1.4142135624 2.4494897428 8.5000000000   0 0 0
Pt 4.2426406871 2.4494897428 8.5000000000   0 0 0
Pt 7.0710678119 2.4494897428 8.5000000000   0 0 0
Pt 2.8284271247 4.8989794856 8.5000000000   0 0 0
Pt 5.6568542495 4.8989794856 8.5000000000   0 0 0
Pt 8.4852813742 4.8989794856 8.5000000000   0 0 0
Pt 1.4142135624 0.8164965809 10.8094010768   0 0 0
Pt 4.2426406871 0.8164965809 10.8094010768   0 0 0
Pt 7.0710678119 0.8164965809 10.8094010768   0 0 0
Pt 2.8284271247 3.2659863237 10.8094010768   0 0 0
Pt 5.6568542495 3.2659863237 10.8094010768   0 0 0
Pt 8.4852813742 3.2659863237 10.8094010768   0 0 0
Pt 4.2426406871 5.7154760665 10.8094010768   0 0 0
Pt 7.0710678119 5.7154760665 10.8094010768   0 0 0
Pt 9.8994949366 5.7154760665 10.8094010768   0 0 0
Pt 0.0119905920 1.6386058201 13.0988697533  
Pt 2.8309190779 1.6344635190 13.1117467409  
Pt 5.6642415367 1.6355477726 13.0878453836  
Pt 1.4177483266 4.0749118273 13.1044304974  
Pt 4.2485124103 4.0876928707 13.0877665489  
Pt 7.0770493356 4.0859991872 13.0904033887  
Pt 2.8302012597 6.5330782193 13.0817690557  
Pt 5.6676799372 6.5396413304 13.0989484681  
Pt 8.4804413357 6.5389204431 13.1044706647  
Pt -0.0079207156 -0.0044528881 15.4054397571  
Pt 2.8619878178 -0.0028949559 15.4924460279  
Pt 5.6777124055 0.0075362086 15.4163182370  
Pt 1.4284620852 2.4800721124 15.4922853665  
Pt 4.2964161758 2.4806492922 15.4155054743  
Pt 7.0903576548 2.4589170450 15.4182529636  
Pt 2.8453821475 4.9134108027 15.4161982413  
Pt 5.6746137163 4.9110766788 15.4182563967  
Pt 8.5017938422 4.9085593777 15.4206898061  
H 2.2973277316 1.3264775931 16.4982822208  

