&CONTROL
   tprnfor          = .true.
   pseudo_dir       = '/users/kbadger1/espresso/pseudo/pslibrary.1.0.0/pbe/PSEUDOPOTENTIALS/'
/
&SYSTEM
   ecutwfc          = 40
   ecutrho          = 410
   nosym            = .true.
   occupations      = 'smearing'
   degauss          = 0.02
   smearing         = 'marzari-vanderbilt'
   nspin            = 1
   input_dft        = 'beef-vdw'
   ntyp             = 2
   nat              = 37
   ibrav            = 0
/
&ELECTRONS
   mixing_mode      = 'local-TF'
/
&IONS
/
&CELL
/
&FCP
/
&RISM
/
ATOMIC_SPECIES
Pt 195.084 Pt.pbe-n-kjpaw_psl.1.0.0.UPF
H 1.008 H.pbe-kjpaw_psl.1.0.0.UPF

K_POINTS automatic
5 5 1  0 0 0

CELL_PARAMETERS angstrom
8.46831000000000 0.00000000000000 0.00000000000000
4.23415500000000 7.33377158712180 0.00000000000000
0.00000000000000 0.00000000000000 24.96566199000000

ATOMIC_POSITIONS angstrom
Pt 0.0000000000 0.0000000000 8.5000000000   0 0 0
Pt 2.8284271247 0.0000000000 8.5000000000   0 0 0
Pt 5.6568542495 0.0000000000 8.5000000000   0 0 0
Pt 1.4142135624 2.4494897428 8.5000000000   0 0 0
Pt 4.2426406871 2.4494897428 8.5000000000   0 0 0
Pt 7.0710678119 2.4494897428 8.5000000000   0 0 0
Pt 2.8284271247 4.8989794856 8.5000000000   0 0 0
Pt 5.6568542495 4.8989794856 8.5000000000   0 0 0
Pt 8.4852813742 4.8989794856 8.5000000000   0 0 0
Pt 1.4142135624 0.8164965809 10.8094010768   0 0 0
Pt 4.2426406871 0.8164965809 10.8094010768   0 0 0
Pt 7.0710678119 0.8164965809 10.8094010768   0 0 0
Pt 2.8284271247 3.2659863237 10.8094010768   0 0 0
Pt 5.6568542495 3.2659863237 10.8094010768   0 0 0
Pt 8.4852813742 3.2659863237 10.8094010768   0 0 0
Pt 4.2426406871 5.7154760665 10.8094010768   0 0 0
Pt 7.0710678119 5.7154760665 10.8094010768   0 0 0
Pt 9.8994949366 5.7154760665 10.8094010768   0 0 0
Pt 0.0466191085 1.6338409080 13.1312202801  
Pt 2.8500857444 1.6202128788 13.1086504464  
Pt 5.6717652935 1.6242171038 13.1027550803  
Pt 1.4382135003 4.0564488621 13.1059360696  
Pt 4.2591958993 4.0585601962 13.0997776115  
Pt 7.0845469099 4.0621780488 13.0919942193  
Pt 2.8529898395 6.5142216750 13.0928443535  
Pt 5.6712284166 6.5065566741 13.0953904714  
Pt 8.4986240553 6.5037790188 13.0922673221  
Pt 0.0438734016 -0.0410232988 15.4269566136  
Pt 2.8731562762 -0.0648433381 15.4175642244  
Pt 5.6920575181 -0.0390088883 15.4280217911  
Pt 1.4639613126 2.3933229591 15.5280448663  
Pt 4.2959553723 2.3992652005 15.4650769471  
Pt 7.0993079931 2.4055773983 15.4303618217  
Pt 2.8687200979 4.8727450395 15.4168636257  
Pt 5.6921453001 4.8472341386 15.4226836668  
Pt 8.5155638020 4.8485625318 15.4241685854  
H 2.4547275411 2.4537390245 16.7832001920  

