&CONTROL
   tprnfor          = .true.
   pseudo_dir       = '/users/kbadger1/espresso/pseudo/pslibrary.1.0.0/pbe/PSEUDOPOTENTIALS/'
/
&SYSTEM
   ecutwfc          = 40
   ecutrho          = 410
   nosym            = .true.
   occupations      = 'smearing'
   degauss          = 0.02
   smearing         = 'marzari-vanderbilt'
   nspin            = 1
   input_dft        = 'beef-vdw'
   ntyp             = 2
   nat              = 37
   ibrav            = 0
/
&ELECTRONS
   conv_thr         = 1e-08
   mixing_mode      = 'local-TF'
/
&IONS
/
&CELL
/
&FCP
/
&RISM
/
ATOMIC_SPECIES
Pt 195.084 Pt.pbe-n-kjpaw_psl.1.0.0.UPF
H 1.008 H.pbe-kjpaw_psl.1.0.0.UPF

K_POINTS automatic
5 5 1  0 0 0

CELL_PARAMETERS angstrom
8.48528137423857 0.00000000000000 0.00000000000000
4.24264068711929 7.34846922834953 0.00000000000000
0.00000000000000 0.00000000000000 23.92820323027551

ATOMIC_POSITIONS angstrom
Pt 0.0000000000 0.0000000000 8.5000000000   0 0 0
Pt 2.8284271247 0.0000000000 8.5000000000   0 0 0
Pt 5.6568542495 0.0000000000 8.5000000000   0 0 0
Pt 1.4142135624 2.4494897428 8.5000000000   0 0 0
Pt 4.2426406871 2.4494897428 8.5000000000   0 0 0
Pt 7.0710678119 2.4494897428 8.5000000000   0 0 0
Pt 2.8284271247 4.8989794856 8.5000000000   0 0 0
Pt 5.6568542495 4.8989794856 8.5000000000   0 0 0
Pt 8.4852813742 4.8989794856 8.5000000000   0 0 0
Pt 1.4142135624 0.8164965809 10.8094010768   0 0 0
Pt 4.2426406871 0.8164965809 10.8094010768   0 0 0
Pt 7.0710678119 0.8164965809 10.8094010768   0 0 0
Pt 2.8284271247 3.2659863237 10.8094010768   0 0 0
Pt 5.6568542495 3.2659863237 10.8094010768   0 0 0
Pt 8.4852813742 3.2659863237 10.8094010768   0 0 0
Pt 4.2426406871 5.7154760665 10.8094010768   0 0 0
Pt 7.0710678119 5.7154760665 10.8094010768   0 0 0
Pt 9.8994949366 5.7154760665 10.8094010768   0 0 0
Pt 0.0369289442 1.6285666046 13.1069834098  
Pt 2.8596752426 1.6170649517 13.1052797181  
Pt 5.6883272307 1.6219937492 13.0926658902  
Pt 1.4376778899 4.0535235147 13.1119709513  
Pt 4.2677680033 4.0688182903 13.0930444333  
Pt 7.0974223940 4.0699865785 13.0959161367  
Pt 2.8541144448 6.5183812785 13.0868043790  
Pt 5.6854735102 6.5228017989 13.0958064142  
Pt 8.5100625326 6.5153643289 13.0969394529  
Pt 0.0515785003 -0.0326780513 15.4133498891  
Pt 2.9042410059 -0.0491636378 15.4488390287  
Pt 5.7209911791 -0.0293354441 15.4232246681  
Pt 1.4962272846 2.4143195352 15.5083581365  
Pt 4.3370171412 2.4268984557 15.4311801031  
Pt 7.1349883058 2.4180742414 15.4246748430  
Pt 2.8897687747 4.8783947576 15.4151636415  
Pt 5.7158924710 4.8746972825 15.4202540516  
Pt 8.5491135094 4.8731083680 15.4256294698  
H 2.2884638958 1.8261806434 16.7518662212  

