Pt  H 
 1.0000000000000000
     8.4683100000000007    0.0000000000000000    0.0000000000000000
     4.2341550000000012    7.3337715871217997    0.0000000000000000
     0.0000000000000000    0.0000000000000000   24.9656619900000010
 Pt  H  
  36   1
Selective dynamics
Cartesian
  0.0000000000000000  0.0000000000000000  8.5000000000000000   F   F   F
  2.8284271247461903  0.0000000000000000  8.5000000000000000   F   F   F
  5.6568542494923806  0.0000000000000000  8.5000000000000000   F   F   F
  1.4142135623730951  2.4494897427831779  8.5000000000000000   F   F   F
  4.2426406871192857  2.4494897427831779  8.5000000000000000   F   F   F
  7.0710678118654755  2.4494897427831779  8.5000000000000000   F   F   F
  2.8284271247461903  4.8989794855663558  8.5000000000000000   F   F   F
  5.6568542494923806  4.8989794855663558  8.5000000000000000   F   F   F
  8.4852813742385713  4.8989794855663558  8.5000000000000000   F   F   F
  1.4142135623730951  0.8164965809277259 10.8094010767585029   F   F   F
  4.2426406871192848  0.8164965809277259 10.8094010767585029   F   F   F
  7.0710678118654755  0.8164965809277259 10.8094010767585029   F   F   F
  2.8284271247461903  3.2659863237109037 10.8094010767585029   F   F   F
  5.6568542494923806  3.2659863237109037 10.8094010767585029   F   F   F
  8.4852813742385713  3.2659863237109037 10.8094010767585029   F   F   F
  4.2426406871192857  5.7154760664940820 10.8094010767585029   F   F   F
  7.0710678118654755  5.7154760664940820 10.8094010767585029   F   F   F
  9.8994949366116671  5.7154760664940820 10.8094010767585029   F   F   F
  0.0094109408732677  1.6482131337813615 13.0999303418542912   T   T   T
  2.8282134772142213  1.6472912518108267 13.1054421782820452   T   T   T
  5.6525085830595048  1.6495210320767120 13.0888113717479087   T   T   T
  1.4142892235847631  4.0984456036846773 13.0927558323848761   T   T   T
  4.2380731227081938  4.0938055398851487 13.0853611463530903   T   T   T
  7.0648621468103787  4.0935632631703349 13.0866072445086949   T   T   T
  2.8266386199041453  6.5420461933436522 13.0972112168700754   T   T   T
  5.6534921080989191  6.5390755148914739 13.1068564835983583   T   T   T
  8.4531455060563125  6.5524524755622595 13.1335260072478057   T   T   T
 -0.0239061593584431  0.0177572684557137 15.4347976093965684   T   T   T
  2.8321346697729255  0.0203845688096811 15.5083552304801007   T   T   T
  5.6520706737803765  0.0302056278037173 15.4251919336975405   T   T   T
  1.4111947755997756  2.4993689392836913 15.4284097065768488   T   T   T
  4.2440809952854002  2.4787189697600125 15.4161636126744988   T   T   T
  7.0549733074815784  2.4754753108557854 15.4156322375646440   T   T   T
  2.8271551812394144  4.9165669063192219 15.4224079316618159   T   T   T
  5.6451637307038594  4.9018021273696695 15.4121091379575805   T   T   T
  8.4721148532819068  4.9135361133935671 15.4228193068729613   T   T   T
  1.9136174598261517  0.5092160085556877 16.7270665901664231   T   T   T
