&CONTROL
   tprnfor          = .true.
   pseudo_dir       = '/users/kbadger1/espresso/pseudo/pslibrary.1.0.0/pbe/PSEUDOPOTENTIALS/'
/
&SYSTEM
   ecutwfc          = 40
   ecutrho          = 410
   nosym            = .true.
   occupations      = 'smearing'
   degauss          = 0.001
   smearing         = 'marzari-vanderbilt'
   nspin            = 1
   input_dft        = 'beef-vdw'
   ntyp             = 4
   nat              = 41
   ibrav            = 0
/
&ELECTRONS
   mixing_mode      = 'local-TF'
/
&IONS
/
&CELL
/
&FCP
/
&RISM
/
ATOMIC_SPECIES
Pt 195.084 Pt.pbe-n-kjpaw_psl.1.0.0.UPF
O 15.999 O.pbe-nl-kjpaw_psl.1.0.0.UPF
H 1.008 H.pbe-kjpaw_psl.1.0.0.UPF
C 12.011 C.pbe-n-kjpaw_psl.1.0.0.UPF

K_POINTS automatic
5 5 1  0 0 0

CELL_PARAMETERS angstrom
8.48528137423857 0.00000000000000 0.00000000000000
4.24264068711929 7.34846922834953 0.00000000000000
0.00000000000000 0.00000000000000 23.92820323027551

ATOMIC_POSITIONS angstrom
Pt 0.0000000000 0.0000000000 8.5000000000   0 0 0
Pt 2.8284271247 0.0000000000 8.5000000000   0 0 0
Pt 5.6568542495 0.0000000000 8.5000000000   0 0 0
Pt 1.4142135624 2.4494897428 8.5000000000   0 0 0
Pt 4.2426406871 2.4494897428 8.5000000000   0 0 0
Pt 7.0710678119 2.4494897428 8.5000000000   0 0 0
Pt 2.8284271247 4.8989794856 8.5000000000   0 0 0
Pt 5.6568542495 4.8989794856 8.5000000000   0 0 0
Pt 8.4852813742 4.8989794856 8.5000000000   0 0 0
Pt 1.4142135624 0.8164965809 10.8094010768   0 0 0
Pt 4.2426406871 0.8164965809 10.8094010768   0 0 0
Pt 7.0710678119 0.8164965809 10.8094010768   0 0 0
Pt 2.8284271247 3.2659863237 10.8094010768   0 0 0
Pt 5.6568542495 3.2659863237 10.8094010768   0 0 0
Pt 8.4852813742 3.2659863237 10.8094010768   0 0 0
Pt 4.2426406871 5.7154760665 10.8094010768   0 0 0
Pt 7.0710678119 5.7154760665 10.8094010768   0 0 0
Pt 9.8994949366 5.7154760665 10.8094010768   0 0 0
Pt -0.0432066783 1.7233044893 13.0573820202  
Pt 2.7925780829 1.6955400432 13.1194268876  
Pt 5.6031487529 1.7014448680 13.1466062784  
Pt 1.4074704971 4.1704909718 13.1973383610  
Pt 4.2025496588 4.0992983110 13.1658954203  
Pt 7.0144789047 4.1613843108 13.1790221627  
Pt 2.7965002944 6.5769925283 13.0795598683  
Pt 5.6229327135 6.5788630373 13.0749124564  
Pt 8.4537677154 6.5779402074 13.0978625392  
Pt -0.0387836508 0.1798048217 15.3206543892  
Pt 2.7708876402 0.0490505482 15.4035688708  
Pt 5.6318994604 0.0352690254 15.4096839301  
Pt 1.3284488389 2.5092579621 15.4443770868  
Pt 4.2182117494 2.4738633203 15.5823966370  
Pt 7.0576457585 2.5139617646 15.4809696356  
Pt 2.7129283840 4.9332229675 15.5001474533  
Pt 5.6515323132 4.9543411064 15.4781186191  
Pt 8.4234238118 4.9757359398 15.4913143365  
O 4.1257669227 5.5151575224 17.0610500850  
H 4.0964434301 4.8761868247 17.7957173277  
H 4.9807100676 2.7356096632 18.0754315511  
H 3.2619140659 2.0409200798 18.0101404401  
C 4.1486225001 2.3693373482 17.4680827608  

