&CONTROL
   tprnfor          = .true.
   pseudo_dir       = '/users/kbadger1/espresso/pseudo/pslibrary.1.0.0/pbe/PSEUDOPOTENTIALS/'
/
&SYSTEM
   ecutwfc          = 40
   ecutrho          = 410
   nosym            = .true.
   occupations      = 'smearing'
   degauss          = 0.001
   smearing         = 'marzari-vanderbilt'
   nspin            = 1
   input_dft        = 'beef-vdw'
   ntyp             = 3
   nat              = 39
   ibrav            = 0
/
&ELECTRONS
   mixing_mode      = 'local-TF'
/
&IONS
/
&CELL
/
&FCP
/
&RISM
/
ATOMIC_SPECIES
Pt 195.084 Pt.pbe-n-kjpaw_psl.1.0.0.UPF
C 12.011 C.pbe-n-kjpaw_psl.1.0.0.UPF
H 1.008 H.pbe-kjpaw_psl.1.0.0.UPF

K_POINTS automatic
5 5 1  0 0 0

CELL_PARAMETERS angstrom
8.48528137423857 0.00000000000000 0.00000000000000
4.24264068711929 7.34846922834953 0.00000000000000
0.00000000000000 0.00000000000000 23.92820323027551

ATOMIC_POSITIONS angstrom
Pt 0.0000000000 0.0000000000 8.5000000000   0 0 0
Pt 2.8284271247 0.0000000000 8.5000000000   0 0 0
Pt 5.6568542495 0.0000000000 8.5000000000   0 0 0
Pt 1.4142135624 2.4494897428 8.5000000000   0 0 0
Pt 4.2426406871 2.4494897428 8.5000000000   0 0 0
Pt 7.0710678119 2.4494897428 8.5000000000   0 0 0
Pt 2.8284271247 4.8989794856 8.5000000000   0 0 0
Pt 5.6568542495 4.8989794856 8.5000000000   0 0 0
Pt 8.4852813742 4.8989794856 8.5000000000   0 0 0
Pt 1.4142135624 0.8164965809 10.8094010768   0 0 0
Pt 4.2426406871 0.8164965809 10.8094010768   0 0 0
Pt 7.0710678119 0.8164965809 10.8094010768   0 0 0
Pt 2.8284271247 3.2659863237 10.8094010768   0 0 0
Pt 5.6568542495 3.2659863237 10.8094010768   0 0 0
Pt 8.4852813742 3.2659863237 10.8094010768   0 0 0
Pt 4.2426406871 5.7154760665 10.8094010768   0 0 0
Pt 7.0710678119 5.7154760665 10.8094010768   0 0 0
Pt 9.8994949366 5.7154760665 10.8094010768   0 0 0
Pt 0.0238057986 1.6180493876 13.1426728473  
Pt 2.8050801262 1.6180755189 13.1427310832  
Pt 5.6571167136 1.6297291480 13.0542725333  
Pt 1.4144535490 4.0672650913 13.1409919060  
Pt 4.2274560577 4.0873099677 13.1077220104  
Pt 7.0866914818 4.0872595867 13.1076219993  
Pt 2.8513000103 6.5234960048 13.1442249499  
Pt 5.6571184568 6.5408712325 13.1373971721  
Pt 8.4628613171 6.5235246873 13.1441982046  
Pt -0.1021882254 -0.0771721795 15.5823179123  
Pt 2.9312049791 -0.0769766099 15.5824075428  
Pt 5.6571653225 0.0209065667 15.3974346322  
Pt 1.4144257798 2.4958442649 15.6836290596  
Pt 4.2802830067 2.4306047263 15.3826836451  
Pt 7.0341815005 2.4305647744 15.3825748144  
Pt 2.8622788941 4.8868093996 15.5721694286  
Pt 5.6572303838 4.8437255990 15.3938649461  
Pt 8.4520373535 4.8869454002 15.5718771531  
C 1.4144298385 0.6960330852 16.4286753400  
H 1.4141716626 4.2741731547 17.8408238578  
C 1.4143557688 4.2295783112 16.7506911180  

