&CONTROL
   tprnfor          = .true.
   pseudo_dir       = '/users/kbadger1/espresso/pseudo/pslibrary.1.0.0/pbe/PSEUDOPOTENTIALS/'
/
&SYSTEM
   ecutwfc          = 40
   ecutrho          = 410
   nosym            = .true.
   occupations      = 'smearing'
   degauss          = 0.001
   smearing         = 'marzari-vanderbilt'
   nspin            = 1
   input_dft        = 'beef-vdw'
   ntyp             = 3
   nat              = 39
   ibrav            = 0
/
&ELECTRONS
   mixing_mode      = 'local-TF'
/
&IONS
/
&CELL
/
&FCP
/
&RISM
/
ATOMIC_SPECIES
Pt 195.084 Pt.pbe-n-kjpaw_psl.1.0.0.UPF
C 12.011 C.pbe-n-kjpaw_psl.1.0.0.UPF
H 1.008 H.pbe-kjpaw_psl.1.0.0.UPF

K_POINTS automatic
5 5 1  0 0 0

CELL_PARAMETERS angstrom
8.48528137423857 0.00000000000000 0.00000000000000
4.24264068711929 7.34846922834953 0.00000000000000
0.00000000000000 0.00000000000000 23.92820323027551

ATOMIC_POSITIONS angstrom
Pt 0.0000000000 0.0000000000 8.5000000000   0 0 0
Pt 2.8284271247 0.0000000000 8.5000000000   0 0 0
Pt 5.6568542495 0.0000000000 8.5000000000   0 0 0
Pt 1.4142135624 2.4494897428 8.5000000000   0 0 0
Pt 4.2426406871 2.4494897428 8.5000000000   0 0 0
Pt 7.0710678119 2.4494897428 8.5000000000   0 0 0
Pt 2.8284271247 4.8989794856 8.5000000000   0 0 0
Pt 5.6568542495 4.8989794856 8.5000000000   0 0 0
Pt 8.4852813742 4.8989794856 8.5000000000   0 0 0
Pt 1.4142135624 0.8164965809 10.8094010768   0 0 0
Pt 4.2426406871 0.8164965809 10.8094010768   0 0 0
Pt 7.0710678119 0.8164965809 10.8094010768   0 0 0
Pt 2.8284271247 3.2659863237 10.8094010768   0 0 0
Pt 5.6568542495 3.2659863237 10.8094010768   0 0 0
Pt 8.4852813742 3.2659863237 10.8094010768   0 0 0
Pt 4.2426406871 5.7154760665 10.8094010768   0 0 0
Pt 7.0710678119 5.7154760665 10.8094010768   0 0 0
Pt 9.8994949366 5.7154760665 10.8094010768   0 0 0
Pt 0.0227012934 1.6441828095 13.1539656641  
Pt 2.8053921798 1.6441982546 13.1539641169  
Pt 5.6568030091 1.6538811953 13.0519324146  
Pt 1.4140816659 4.0932332263 13.1313979217  
Pt 4.2237344882 4.1021379922 13.1077942078  
Pt 7.0900646640 4.1021582240 13.1078224587  
Pt 2.8513069221 6.5536563297 13.1380171915  
Pt 5.6569181090 6.5579868776 13.1306103382  
Pt 8.4623379931 6.5537224238 13.1381748671  
Pt -0.0225825720 0.0441957724 15.5955636860  
Pt 2.8506463546 0.0451020501 15.5963781865  
Pt 5.6568039806 0.0839040398 15.3994753311  
Pt 1.4128924518 2.6442501331 15.6711230384  
Pt 4.2833541385 2.4694225802 15.3948590108  
Pt 7.0295634964 2.4693838461 15.3949281656  
Pt 2.9212401229 4.9989458005 15.5349896421  
Pt 5.6569148999 4.8879499748 15.3934106336  
Pt 8.3923398381 4.9998693138 15.5353925165  
C 1.4133208978 0.8658018341 16.6697006149  
H 1.4107367678 1.5520668360 17.5573380555  
C 1.4141804561 4.4432180048 16.5763687743  

