&CONTROL
   tprnfor          = .true.
   pseudo_dir       = '/users/kbadger1/espresso/pseudo/pslibrary.1.0.0/pbe/PSEUDOPOTENTIALS/'
/
&SYSTEM
   ecutwfc          = 40
   ecutrho          = 410
   nosym            = .true.
   occupations      = 'smearing'
   degauss          = 0.001
   smearing         = 'marzari-vanderbilt'
   nspin            = 1
   input_dft        = 'beef-vdw'
   ntyp             = 3
   nat              = 39
   ibrav            = 0
/
&ELECTRONS
   mixing_mode      = 'local-TF'
/
&IONS
/
&CELL
/
&FCP
/
&RISM
/
ATOMIC_SPECIES
Pt 195.084 Pt.pbe-n-kjpaw_psl.1.0.0.UPF
C 12.011 C.pbe-n-kjpaw_psl.1.0.0.UPF
H 1.008 H.pbe-kjpaw_psl.1.0.0.UPF

K_POINTS automatic
5 5 1  0 0 0

CELL_PARAMETERS angstrom
8.48528137423857 0.00000000000000 0.00000000000000
4.24264068711929 7.34846922834953 0.00000000000000
0.00000000000000 0.00000000000000 23.92820323027551

ATOMIC_POSITIONS angstrom
Pt 0.0000000000 0.0000000000 8.5000000000   0 0 0
Pt 2.8284271247 0.0000000000 8.5000000000   0 0 0
Pt 5.6568542495 0.0000000000 8.5000000000   0 0 0
Pt 1.4142135624 2.4494897428 8.5000000000   0 0 0
Pt 4.2426406871 2.4494897428 8.5000000000   0 0 0
Pt 7.0710678119 2.4494897428 8.5000000000   0 0 0
Pt 2.8284271247 4.8989794856 8.5000000000   0 0 0
Pt 5.6568542495 4.8989794856 8.5000000000   0 0 0
Pt 8.4852813742 4.8989794856 8.5000000000   0 0 0
Pt 1.4142135624 0.8164965809 10.8094010768   0 0 0
Pt 4.2426406871 0.8164965809 10.8094010768   0 0 0
Pt 7.0710678119 0.8164965809 10.8094010768   0 0 0
Pt 2.8284271247 3.2659863237 10.8094010768   0 0 0
Pt 5.6568542495 3.2659863237 10.8094010768   0 0 0
Pt 8.4852813742 3.2659863237 10.8094010768   0 0 0
Pt 4.2426406871 5.7154760665 10.8094010768   0 0 0
Pt 7.0710678119 5.7154760665 10.8094010768   0 0 0
Pt 9.8994949366 5.7154760665 10.8094010768   0 0 0
Pt 0.0225295008 1.6282429368 13.1501406411  
Pt 2.8050995833 1.6281552701 13.1501489904  
Pt 5.6565763522 1.6370842287 13.0523623455  
Pt 1.4138049633 4.0798854005 13.1220400915  
Pt 4.2239837823 4.0871497717 13.1117571725  
Pt 7.0890893635 4.0871767883 13.1117684457  
Pt 2.8536517405 6.5388606745 13.1390301081  
Pt 5.6564930527 6.5401667268 13.1330270789  
Pt 8.4592807346 6.5387965349 13.1390038396  
Pt -0.0188056293 0.0257844383 15.6011217883  
Pt 2.8455862665 0.0259556211 15.6012659007  
Pt 5.6561230499 0.0553538084 15.3999773126  
Pt 1.4132859831 2.6260945704 15.6486884928  
Pt 4.2824112852 2.4416389383 15.3944992173  
Pt 7.0298688656 2.4416375752 15.3944433590  
Pt 2.9243977698 4.9792467248 15.5365252230  
Pt 5.6561651411 4.8589103627 15.4021131672  
Pt 8.3877898681 4.9793961984 15.5366482592  
C 1.4131951655 0.8683343156 16.6653534362  
H 1.4128641639 1.4858378531 17.5882165625  
C 1.4134764279 4.4127867579 16.5676554519  

