&CONTROL
   tprnfor          = .true.
   pseudo_dir       = '/users/kbadger1/espresso/pseudo/pslibrary.1.0.0/pbe/PSEUDOPOTENTIALS/'
/
&SYSTEM
   ecutwfc          = 40
   ecutrho          = 410
   nosym            = .true.
   occupations      = 'smearing'
   degauss          = 0.001
   smearing         = 'marzari-vanderbilt'
   nspin            = 1
   input_dft        = 'beef-vdw'
   ntyp             = 3
   nat              = 39
   ibrav            = 0
/
&ELECTRONS
   mixing_mode      = 'local-TF'
/
&IONS
/
&CELL
/
&FCP
/
&RISM
/
ATOMIC_SPECIES
Pt 195.084 Pt.pbe-n-kjpaw_psl.1.0.0.UPF
O 15.999 O.pbe-nl-kjpaw_psl.1.0.0.UPF
H 1.008 H.pbe-kjpaw_psl.1.0.0.UPF

K_POINTS automatic
5 5 1  0 0 0

CELL_PARAMETERS angstrom
8.48528137423857 0.00000000000000 0.00000000000000
4.24264068711929 7.34846922834953 0.00000000000000
0.00000000000000 0.00000000000000 23.92820323027551

ATOMIC_POSITIONS angstrom
Pt 0.0000000000 0.0000000000 8.5000000000   0 0 0
Pt 2.8284271247 0.0000000000 8.5000000000   0 0 0
Pt 5.6568542495 0.0000000000 8.5000000000   0 0 0
Pt 1.4142135624 2.4494897428 8.5000000000   0 0 0
Pt 4.2426406871 2.4494897428 8.5000000000   0 0 0
Pt 7.0710678119 2.4494897428 8.5000000000   0 0 0
Pt 2.8284271247 4.8989794856 8.5000000000   0 0 0
Pt 5.6568542495 4.8989794856 8.5000000000   0 0 0
Pt 8.4852813742 4.8989794856 8.5000000000   0 0 0
Pt 1.4142135624 0.8164965809 10.8094010768   0 0 0
Pt 4.2426406871 0.8164965809 10.8094010768   0 0 0
Pt 7.0710678119 0.8164965809 10.8094010768   0 0 0
Pt 2.8284271247 3.2659863237 10.8094010768   0 0 0
Pt 5.6568542495 3.2659863237 10.8094010768   0 0 0
Pt 8.4852813742 3.2659863237 10.8094010768   0 0 0
Pt 4.2426406871 5.7154760665 10.8094010768   0 0 0
Pt 7.0710678119 5.7154760665 10.8094010768   0 0 0
Pt 9.8994949366 5.7154760665 10.8094010768   0 0 0
Pt -0.0639565378 1.6837015701 13.0925702330  
Pt 2.7588356924 1.6897093426 13.0987296166  
Pt 5.5934672110 1.6840300095 13.0996247650  
Pt 1.3444798468 4.1419315843 13.1092545285  
Pt 4.1686491870 4.1200431537 13.1269664594  
Pt 7.0019764770 4.1404665157 13.1013747490  
Pt 2.7711803257 6.5773414171 13.0922336403  
Pt 5.5816593597 6.5784781288 13.0902622368  
Pt 8.4165970184 6.5857017082 13.0959559340  
Pt -0.1360821114 0.1139577492 15.4388397663  
Pt 2.6798829753 0.0902195763 15.4013489647  
Pt 5.5386461703 0.0794627204 15.4074539623  
Pt 1.2628675078 2.5636381333 15.4318293973  
Pt 4.0924573270 2.5993624889 15.4267242112  
Pt 6.9542286658 2.5666416719 15.4184417882  
Pt 2.6824580002 5.0304573186 15.4577974748  
Pt 5.5288922446 5.0233645745 15.4457227971  
Pt 8.3469171027 5.0110076901 15.4493770057  
O 4.3382498296 1.9704413672 17.7348557810  
H 5.0265933657 2.5921470971 18.0213210572  
H 4.8253420249 1.1656235002 17.4364162297  

