Pt H 
 1.0000000000000000
     8.4683100000000007    0.0000000000000000    0.0000000000000000
     4.2341550000000012    7.3337715871217997    0.0000000000000000
     0.0000000000000000    0.0000000000000000   24.9656619900000010
 Pt  H  
  36   1
Selective dynamics
Cartesian
  0.0000000000000000  0.0000000000000000  8.5000000000000000   F   F   F
  2.8284271247461903  0.0000000000000000  8.5000000000000000   F   F   F
  5.6568542494923806  0.0000000000000000  8.5000000000000000   F   F   F
  1.4142135623730951  2.4494897427831779  8.5000000000000000   F   F   F
  4.2426406871192857  2.4494897427831779  8.5000000000000000   F   F   F
  7.0710678118654755  2.4494897427831779  8.5000000000000000   F   F   F
  2.8284271247461903  4.8989794855663558  8.5000000000000000   F   F   F
  5.6568542494923806  4.8989794855663558  8.5000000000000000   F   F   F
  8.4852813742385713  4.8989794855663558  8.5000000000000000   F   F   F
  1.4142135623730951  0.8164965809277259 10.8094010767585029   F   F   F
  4.2426406871192848  0.8164965809277259 10.8094010767585029   F   F   F
  7.0710678118654755  0.8164965809277259 10.8094010767585029   F   F   F
  2.8284271247461903  3.2659863237109037 10.8094010767585029   F   F   F
  5.6568542494923806  3.2659863237109037 10.8094010767585029   F   F   F
  8.4852813742385713  3.2659863237109037 10.8094010767585029   F   F   F
  4.2426406871192857  5.7154760664940820 10.8094010767585029   F   F   F
  7.0710678118654755  5.7154760664940820 10.8094010767585029   F   F   F
  9.8994949366116671  5.7154760664940820 10.8094010767585029   F   F   F
  0.0156495459090296  1.6572778278275171 13.1144748550790027   T   T   T
  2.8256337287720914  1.6463323187862788 13.1277655328658227   T   T   T
  5.6485686595988165  1.6488274926410327 13.0949731903808431   T   T   T
  1.4128933070507743  4.0793896867008481 13.1161939676017472   T   T   T
  4.2350534418875307  4.0866317421672980 13.0941747048249475   T   T   T
  7.0598302801325028  4.0917705933837158 13.0871684964003094   T   T   T
  2.8275447212193816  6.5370043047759498 13.0838334060300117   T   T   T
  5.6530924147304997  6.5400359838753097 13.1000770199690066   T   T   T
  8.4693366643700809  6.5347533899968475 13.0985083190548508   T   T   T
 -0.0127562900845975  0.0165019282912279 15.4145566480024794   T   T   T
  2.8346095050696030  0.0003963391281675 15.4633675080216051   T   T   T
  5.6498946065827784  0.0211514601398071 15.4174665947633436   T   T   T
  1.4040962700764341  2.4694734631845856 15.5249743880952895   T   T   T
  4.2611382731848293  2.4718774070233303 15.4571788430667034   T   T   T
  7.0575010682045942  2.4695483291095437 15.4224890122383833   T   T   T
  2.8217707569488537  4.9246265494740040 15.4140367408913530   T   T   T
  5.6450755816346110  4.9132650618839326 15.4139574202815393   T   T   T
  8.4668871216817703  4.9116101394024447 15.4236495186279701   T   T   T
  2.4637345645482118  1.8579534435562606 16.6064038677285026   T   T   T
