&CONTROL
   tprnfor          = .true.
   pseudo_dir       = '/users/kbadger1/espresso/pseudo/pslibrary.1.0.0/pbe/PSEUDOPOTENTIALS/'
/
&SYSTEM
   ecutwfc          = 40
   ecutrho          = 410
   nosym            = .true.
   occupations      = 'smearing'
   degauss          = 0.001
   smearing         = 'marzari-vanderbilt'
   nspin            = 1
   input_dft        = 'beef-vdw'
   ntyp             = 3
   nat              = 39
   ibrav            = 0
/
&ELECTRONS
   mixing_mode      = 'local-TF'
/
&IONS
/
&CELL
/
&FCP
/
&RISM
/
ATOMIC_SPECIES
Pt 195.084 Pt.pbe-n-kjpaw_psl.1.0.0.UPF
C 12.011 C.pbe-n-kjpaw_psl.1.0.0.UPF
H 1.008 H.pbe-kjpaw_psl.1.0.0.UPF

K_POINTS automatic
5 5 1  0 0 0

CELL_PARAMETERS angstrom
8.48528137423857 0.00000000000000 0.00000000000000
4.24264068711929 7.34846922834953 0.00000000000000
0.00000000000000 0.00000000000000 23.92820323027551

ATOMIC_POSITIONS angstrom
Pt 0.0000000000 0.0000000000 8.5000000000   0 0 0
Pt 2.8284271247 0.0000000000 8.5000000000   0 0 0
Pt 5.6568542495 0.0000000000 8.5000000000   0 0 0
Pt 1.4142135624 2.4494897428 8.5000000000   0 0 0
Pt 4.2426406871 2.4494897428 8.5000000000   0 0 0
Pt 7.0710678119 2.4494897428 8.5000000000   0 0 0
Pt 2.8284271247 4.8989794856 8.5000000000   0 0 0
Pt 5.6568542495 4.8989794856 8.5000000000   0 0 0
Pt 8.4852813742 4.8989794856 8.5000000000   0 0 0
Pt 1.4142135624 0.8164965809 10.8094010768   0 0 0
Pt 4.2426406871 0.8164965809 10.8094010768   0 0 0
Pt 7.0710678119 0.8164965809 10.8094010768   0 0 0
Pt 2.8284271247 3.2659863237 10.8094010768   0 0 0
Pt 5.6568542495 3.2659863237 10.8094010768   0 0 0
Pt 8.4852813742 3.2659863237 10.8094010768   0 0 0
Pt 4.2426406871 5.7154760665 10.8094010768   0 0 0
Pt 7.0710678119 5.7154760665 10.8094010768   0 0 0
Pt 9.8994949366 5.7154760665 10.8094010768   0 0 0
Pt 0.0147983721 1.5994040702 13.1251595072  
Pt 2.8132729074 1.5993958802 13.1251184822  
Pt 5.6567137579 1.6180024416 13.0506139030  
Pt 1.4140357588 4.0565778830 13.1347480139  
Pt 4.2264723100 4.0797078665 13.1150726009  
Pt 7.0868486925 4.0797098029 13.1150078339  
Pt 2.8482716068 6.5044314970 13.1429180758  
Pt 5.6566842964 6.5279345851 13.1408518574  
Pt 8.4650966968 6.5044378456 13.1428007713  
Pt -0.1273909741 -0.1429613253 15.5834001475  
Pt 2.9551622565 -0.1428168518 15.5832299509  
Pt 5.6565676998 -0.0191416495 15.3863181350  
Pt 1.4138346705 2.3748480781 15.5675007224  
Pt 4.2838053856 2.3961375526 15.3781982070  
Pt 7.0293121792 2.3961307516 15.3781998630  
Pt 2.8464018439 4.8192982689 15.6040543455  
Pt 5.6564958786 4.8111011422 15.4040031223  
Pt 8.4664606018 4.8194454279 15.6035964639  
C 1.4139018302 0.6055974263 16.4008697265  
H 1.4130215819 3.7909125749 17.7812633305  
C 1.4135264268 4.0339878631 16.7211783798  

