&CONTROL
   tprnfor          = .true.
   pseudo_dir       = '/users/kbadger1/espresso/pseudo/pslibrary.1.0.0/pbe/PSEUDOPOTENTIALS/'
/
&SYSTEM
   ecutwfc          = 40
   ecutrho          = 410
   nosym            = .true.
   occupations      = 'smearing'
   degauss          = 0.001
   smearing         = 'marzari-vanderbilt'
   nspin            = 1
   input_dft        = 'beef-vdw'
   ntyp             = 3
   nat              = 38
   ibrav            = 0
/
&ELECTRONS
   mixing_mode      = 'local-TF'
/
&IONS
/
&CELL
/
&FCP
/
&RISM
/
ATOMIC_SPECIES
Pt 195.084 Pt.pbe-n-kjpaw_psl.1.0.0.UPF
C 12.011 C.pbe-n-kjpaw_psl.1.0.0.UPF
H 1.008 H.pbe-kjpaw_psl.1.0.0.UPF

K_POINTS automatic
5 5 1  0 0 0

CELL_PARAMETERS angstrom
8.48528137423857 0.00000000000000 0.00000000000000
4.24264068711929 7.34846922834953 0.00000000000000
0.00000000000000 0.00000000000000 23.92820323027551

ATOMIC_POSITIONS angstrom
Pt 0.0000000000 0.0000000000 8.5000000000   0 0 0
Pt 2.8284271247 0.0000000000 8.5000000000   0 0 0
Pt 5.6568542495 0.0000000000 8.5000000000   0 0 0
Pt 1.4142135624 2.4494897428 8.5000000000   0 0 0
Pt 4.2426406871 2.4494897428 8.5000000000   0 0 0
Pt 7.0710678119 2.4494897428 8.5000000000   0 0 0
Pt 2.8284271247 4.8989794856 8.5000000000   0 0 0
Pt 5.6568542495 4.8989794856 8.5000000000   0 0 0
Pt 8.4852813742 4.8989794856 8.5000000000   0 0 0
Pt 1.4142135624 0.8164965809 10.8094010768   0 0 0
Pt 4.2426406871 0.8164965809 10.8094010768   0 0 0
Pt 7.0710678119 0.8164965809 10.8094010768   0 0 0
Pt 2.8284271247 3.2659863237 10.8094010768   0 0 0
Pt 5.6568542495 3.2659863237 10.8094010768   0 0 0
Pt 8.4852813742 3.2659863237 10.8094010768   0 0 0
Pt 4.2426406871 5.7154760665 10.8094010768   0 0 0
Pt 7.0710678119 5.7154760665 10.8094010768   0 0 0
Pt 9.8994949366 5.7154760665 10.8094010768   0 0 0
Pt 0.0150113148 1.6458195900 13.1425522934  
Pt 2.8134369059 1.6458989020 13.1424871678  
Pt 5.6567769160 1.6546185031 13.0850896137  
Pt 1.4142843663 4.0650192376 13.1561512843  
Pt 4.2380432956 4.1009708910 13.0808652137  
Pt 7.0755696392 4.1010074619 13.0809959553  
Pt 2.8389827085 6.5590722654 13.1211895840  
Pt 5.6568230044 6.5614845305 13.1235238547  
Pt 8.4747070553 6.5591791982 13.1212212688  
Pt -0.1235340689 -0.0315982624 15.5453965854  
Pt 2.9519128272 -0.0315834625 15.5452588124  
Pt 5.6568320917 0.0503098568 15.4366289501  
Pt 1.4142491604 2.6091575703 15.6837008784  
Pt 4.2689325575 2.5083925429 15.3999106551  
Pt 7.0447410329 2.5083530784 15.3999569316  
Pt 2.8312047926 4.9426366272 15.4312788803  
Pt 5.6567593613 4.9062698279 15.3889630055  
Pt 8.4825640898 4.9426736387 15.4312746471  
C 1.4142206908 0.7331697286 16.3101196402  
H 1.4143498939 2.3082207408 17.2415709603  

