&CONTROL
   tprnfor          = .true.
   pseudo_dir       = '/users/kbadger1/espresso/pseudo/pslibrary.1.0.0/pbe/PSEUDOPOTENTIALS/'
/
&SYSTEM
   ecutwfc          = 40
   ecutrho          = 410
   nosym            = .true.
   occupations      = 'smearing'
   degauss          = 0.02
   smearing         = 'marzari-vanderbilt'
   nspin            = 1
   input_dft        = 'beef-vdw'
   ntyp             = 2
   nat              = 37
   ibrav            = 0
/
&ELECTRONS
   mixing_mode      = 'local-TF'
/
&IONS
/
&CELL
/
&FCP
/
&RISM
/
ATOMIC_SPECIES
Pt 195.084 Pt.pbe-n-kjpaw_psl.1.0.0.UPF
H 1.008 H.pbe-kjpaw_psl.1.0.0.UPF

K_POINTS automatic
5 5 1  0 0 0

CELL_PARAMETERS angstrom
8.46831000000000 0.00000000000000 0.00000000000000
4.23415500000000 7.33377158712180 0.00000000000000
0.00000000000000 0.00000000000000 24.96566199000000

ATOMIC_POSITIONS angstrom
Pt 0.0000000000 0.0000000000 8.5000000000   0 0 0
Pt 2.8284271247 0.0000000000 8.5000000000   0 0 0
Pt 5.6568542495 0.0000000000 8.5000000000   0 0 0
Pt 1.4142135624 2.4494897428 8.5000000000   0 0 0
Pt 4.2426406871 2.4494897428 8.5000000000   0 0 0
Pt 7.0710678119 2.4494897428 8.5000000000   0 0 0
Pt 2.8284271247 4.8989794856 8.5000000000   0 0 0
Pt 5.6568542495 4.8989794856 8.5000000000   0 0 0
Pt 8.4852813742 4.8989794856 8.5000000000   0 0 0
Pt 1.4142135624 0.8164965809 10.8094010768   0 0 0
Pt 4.2426406871 0.8164965809 10.8094010768   0 0 0
Pt 7.0710678119 0.8164965809 10.8094010768   0 0 0
Pt 2.8284271247 3.2659863237 10.8094010768   0 0 0
Pt 5.6568542495 3.2659863237 10.8094010768   0 0 0
Pt 8.4852813742 3.2659863237 10.8094010768   0 0 0
Pt 4.2426406871 5.7154760665 10.8094010768   0 0 0
Pt 7.0710678119 5.7154760665 10.8094010768   0 0 0
Pt 9.8994949366 5.7154760665 10.8094010768   0 0 0
Pt 0.0212050466 1.6215152588 13.1148660649  
Pt 2.8256345711 1.6204368628 13.1120074060  
Pt 5.6579623857 1.6178962929 13.0898043902  
Pt 1.4241403079 4.0439023876 13.1232671384  
Pt 4.2451463142 4.0609121415 13.0936912571  
Pt 7.0708109482 4.0612110058 13.0929647852  
Pt 2.8366083865 6.5031972716 13.0947914050  
Pt 5.6584424496 6.5060434089 13.0967816720  
Pt 8.4820581449 6.5023047421 13.0913800840  
Pt 0.0068837156 -0.0433231348 15.4218959755  
Pt 2.8434368931 -0.0431226453 15.4199670589  
Pt 5.6587292246 -0.0374442772 15.4229624066  
Pt 1.4249863063 2.3977898855 15.5563531698  
Pt 4.2516496943 2.4055511175 15.4205661455  
Pt 7.0662555890 2.4057570761 15.4212197555  
Pt 2.8357666210 4.8540578208 15.4263649310  
Pt 5.6591293651 4.8499681244 15.4205288557  
Pt 8.4822311598 4.8543379605 15.4253252477  
H 1.4265211307 2.2431816857 17.1043399555  

