&CONTROL
   tprnfor          = .true.
   pseudo_dir       = '/users/kbadger1/espresso/pseudo/pslibrary.1.0.0/pbe/PSEUDOPOTENTIALS/'
/
&SYSTEM
   ecutwfc          = 40
   ecutrho          = 410
   nosym            = .true.
   occupations      = 'smearing'
   degauss          = 0.001
   smearing         = 'marzari-vanderbilt'
   nspin            = 1
   input_dft        = 'beef-vdw'
   ntyp             = 3
   nat              = 38
   ibrav            = 0
/
&ELECTRONS
   conv_thr         = 1e-08
   mixing_mode      = 'local-TF'
/
&IONS
/
&CELL
/
&FCP
/
&RISM
/
ATOMIC_SPECIES
Pt 195.084 Pt.pbe-n-kjpaw_psl.1.0.0.UPF
C 12.011 C.pbe-n-kjpaw_psl.1.0.0.UPF
H 1.008 H.pbe-kjpaw_psl.1.0.0.UPF

K_POINTS automatic
5 5 1  0 0 0

CELL_PARAMETERS angstrom
8.48528137423857 0.00000000000000 0.00000000000000
4.24264068711929 7.34846922834953 0.00000000000000
0.00000000000000 0.00000000000000 23.92820323027551

ATOMIC_POSITIONS angstrom
Pt 0.0000000000 0.0000000000 8.5000000000   0 0 0
Pt 2.8284271247 0.0000000000 8.5000000000   0 0 0
Pt 5.6568542495 0.0000000000 8.5000000000   0 0 0
Pt 1.4142135624 2.4494897428 8.5000000000   0 0 0
Pt 4.2426406871 2.4494897428 8.5000000000   0 0 0
Pt 7.0710678119 2.4494897428 8.5000000000   0 0 0
Pt 2.8284271247 4.8989794856 8.5000000000   0 0 0
Pt 5.6568542495 4.8989794856 8.5000000000   0 0 0
Pt 8.4852813742 4.8989794856 8.5000000000   0 0 0
Pt 1.4142135624 0.8164965809 10.8094010768   0 0 0
Pt 4.2426406871 0.8164965809 10.8094010768   0 0 0
Pt 7.0710678119 0.8164965809 10.8094010768   0 0 0
Pt 2.8284271247 3.2659863237 10.8094010768   0 0 0
Pt 5.6568542495 3.2659863237 10.8094010768   0 0 0
Pt 8.4852813742 3.2659863237 10.8094010768   0 0 0
Pt 4.2426406871 5.7154760665 10.8094010768   0 0 0
Pt 7.0710678119 5.7154760665 10.8094010768   0 0 0
Pt 9.8994949366 5.7154760665 10.8094010768   0 0 0
Pt 0.0127808338 1.6557413499 13.1357484663  
Pt 2.8156487986 1.6557593130 13.1357243586  
Pt 5.6568317944 1.6617313712 13.0859204666  
Pt 1.4142278165 4.0850847621 13.1552341940  
Pt 4.2379945434 4.1102799968 13.0818496420  
Pt 7.0756797210 4.1102833632 13.0818823710  
Pt 2.8418813720 6.5731676918 13.1243745943  
Pt 5.6568354333 6.5709103802 13.1233839084  
Pt 8.4718193137 6.5731877271 13.1243857776  
Pt -0.0934845594 0.0186348911 15.5556163497  
Pt 2.9218727513 0.0186484967 15.5555856244  
Pt 5.6568318436 0.0733288683 15.4435326171  
Pt 1.4142155172 2.6641007349 15.6174578844  
Pt 4.2722592682 2.5316535822 15.4007297077  
Pt 7.0413987300 2.5316417455 15.4007700449  
Pt 2.8417589968 4.9843369409 15.4355558660  
Pt 5.6568178826 4.9297457315 15.3924696753  
Pt 8.4719342154 4.9843512446 15.4355812273  
C 1.4141999451 0.8274904958 16.3973694505  
H 1.4142255665 2.2053396192 17.1902711757  

