&CONTROL
   tprnfor          = .true.
   pseudo_dir       = '/users/kbadger1/espresso/pseudo/pslibrary.1.0.0/pbe/PSEUDOPOTENTIALS/'
/
&SYSTEM
   ecutwfc          = 40
   ecutrho          = 410
   nosym            = .true.
   occupations      = 'smearing'
   degauss          = 0.001
   smearing         = 'marzari-vanderbilt'
   nspin            = 1
   input_dft        = 'beef-vdw'
   ntyp             = 3
   nat              = 39
   ibrav            = 0
/
&ELECTRONS
   conv_thr         = 1e-08
   mixing_mode      = 'local-TF'
/
&IONS
/
&CELL
/
&FCP
/
&RISM
/
ATOMIC_SPECIES
Pt 195.084 Pt.pbe-n-kjpaw_psl.1.0.0.UPF
O 15.999 O.pbe-nl-kjpaw_psl.1.0.0.UPF
H 1.008 H.pbe-kjpaw_psl.1.0.0.UPF

K_POINTS automatic
5 5 1  0 0 0

CELL_PARAMETERS angstrom
8.48528137423857 0.00000000000000 0.00000000000000
4.24264068711929 7.34846922834953 0.00000000000000
0.00000000000000 0.00000000000000 23.92820323027551

ATOMIC_POSITIONS angstrom
Pt 0.0000000000 0.0000000000 8.5000000000   0 0 0
Pt 2.8284271247 0.0000000000 8.5000000000   0 0 0
Pt 5.6568542495 0.0000000000 8.5000000000   0 0 0
Pt 1.4142135624 2.4494897428 8.5000000000   0 0 0
Pt 4.2426406871 2.4494897428 8.5000000000   0 0 0
Pt 7.0710678119 2.4494897428 8.5000000000   0 0 0
Pt 2.8284271247 4.8989794856 8.5000000000   0 0 0
Pt 5.6568542495 4.8989794856 8.5000000000   0 0 0
Pt 8.4852813742 4.8989794856 8.5000000000   0 0 0
Pt 1.4142135624 0.8164965809 10.8094010768   0 0 0
Pt 4.2426406871 0.8164965809 10.8094010768   0 0 0
Pt 7.0710678119 0.8164965809 10.8094010768   0 0 0
Pt 2.8284271247 3.2659863237 10.8094010768   0 0 0
Pt 5.6568542495 3.2659863237 10.8094010768   0 0 0
Pt 8.4852813742 3.2659863237 10.8094010768   0 0 0
Pt 4.2426406871 5.7154760665 10.8094010768   0 0 0
Pt 7.0710678119 5.7154760665 10.8094010768   0 0 0
Pt 9.8994949366 5.7154760665 10.8094010768   0 0 0
Pt -0.0662379133 1.6837129965 13.0918314391  
Pt 2.7571185731 1.6904635716 13.0996629048  
Pt 5.5907858999 1.6835695926 13.1000200994  
Pt 1.3414923862 4.1420198725 13.1088117934  
Pt 4.1658309617 4.1200886905 13.1283609477  
Pt 6.9986836231 4.1408499860 13.1007055884  
Pt 2.7686323239 6.5775299116 13.0921654732  
Pt 5.5793763515 6.5791260551 13.0898563391  
Pt 8.4141846245 6.5854211366 13.0959408667  
Pt -0.1409292893 0.1157963651 15.4391070537  
Pt 2.6753561379 0.0922802070 15.4010791893  
Pt 5.5343057477 0.0798862112 15.4079421723  
Pt 1.2580717430 2.5655037376 15.4316401027  
Pt 4.0889893686 2.6041873965 15.4294614651  
Pt 6.9502356444 2.5690197093 15.4167385244  
Pt 2.6771225499 5.0325656731 15.4583536217  
Pt 5.5243174389 5.0270024377 15.4461107489  
Pt 8.3418104434 5.0127326149 15.4492200915  
O 4.3444164304 1.9575103064 17.7255514633  
H 5.0264088441 2.5806287593 18.0242177635  
H 4.8400062632 1.1618716561 17.4109656854  

