&CONTROL
   tprnfor          = .true.
   pseudo_dir       = '/users/kbadger1/espresso/pseudo/pslibrary.1.0.0/pbe/PSEUDOPOTENTIALS/'
/
&SYSTEM
   ecutwfc          = 40
   ecutrho          = 410
   nosym            = .true.
   occupations      = 'smearing'
   degauss          = 0.02
   smearing         = 'marzari-vanderbilt'
   nspin            = 1
   input_dft        = 'beef-vdw'
   ntyp             = 3
   nat              = 39
   ibrav            = 0
/
&ELECTRONS
   mixing_mode      = 'local-TF'
/
&IONS
/
&CELL
/
&FCP
/
&RISM
/
ATOMIC_SPECIES
Pt 195.084 Pt.pbe-n-kjpaw_psl.1.0.0.UPF
O 15.999 O.pbe-nl-kjpaw_psl.1.0.0.UPF
H 1.008 H.pbe-kjpaw_psl.1.0.0.UPF

K_POINTS automatic
5 5 1  0 0 0

CELL_PARAMETERS angstrom
8.48528137423857 0.00000000000000 0.00000000000000
4.24264068711929 7.34846922834953 0.00000000000000
0.00000000000000 0.00000000000000 23.92820323027551

ATOMIC_POSITIONS angstrom
Pt 0.0000000000 0.0000000000 8.5000000000   0 0 0
Pt 2.8284271247 0.0000000000 8.5000000000   0 0 0
Pt 5.6568542495 0.0000000000 8.5000000000   0 0 0
Pt 1.4142135624 2.4494897428 8.5000000000   0 0 0
Pt 4.2426406871 2.4494897428 8.5000000000   0 0 0
Pt 7.0710678119 2.4494897428 8.5000000000   0 0 0
Pt 2.8284271247 4.8989794856 8.5000000000   0 0 0
Pt 5.6568542495 4.8989794856 8.5000000000   0 0 0
Pt 8.4852813742 4.8989794856 8.5000000000   0 0 0
Pt 1.4142135624 0.8164965809 10.8094010768   0 0 0
Pt 4.2426406871 0.8164965809 10.8094010768   0 0 0
Pt 7.0710678119 0.8164965809 10.8094010768   0 0 0
Pt 2.8284271247 3.2659863237 10.8094010768   0 0 0
Pt 5.6568542495 3.2659863237 10.8094010768   0 0 0
Pt 8.4852813742 3.2659863237 10.8094010768   0 0 0
Pt 4.2426406871 5.7154760665 10.8094010768   0 0 0
Pt 7.0710678119 5.7154760665 10.8094010768   0 0 0
Pt 9.8994949366 5.7154760665 10.8094010768   0 0 0
Pt -0.0085078274 1.6344321634 13.0844292722  
Pt 2.8225753419 1.6392694686 13.0958897397  
Pt 5.6459455384 1.6370955597 13.0935329279  
Pt 1.4032295437 4.0875349366 13.0921321819  
Pt 4.2326259765 4.0787305820 13.1015680613  
Pt 7.0617569359 4.0872964201 13.0913483718  
Pt 2.8224851912 6.5339279759 13.0834670011  
Pt 5.6450226200 6.5347046410 13.0850585352  
Pt 8.4752688004 6.5339486052 13.0890044813  
Pt -0.0228539484 0.0078808704 15.4194597809  
Pt 2.8004113551 -0.0037783241 15.4071514731  
Pt 5.6401500722 -0.0043431942 15.4057967861  
Pt 1.3807060315 2.4587418794 15.4117126478  
Pt 4.2134600618 2.4608047421 15.4331800921  
Pt 7.0591705196 2.4596386842 15.4082795066  
Pt 2.8005224856 4.9163580120 15.4169572154  
Pt 5.6399379843 4.9145953460 15.4179572199  
Pt 8.4620414347 4.9073950713 15.4250447846  
O 4.3562462327 2.2190955092 17.9868217469  
H 5.0099170552 2.9007896728 18.2068613646  
H 4.8567742461 1.3871490107 17.9757021496  

