&CONTROL
   tprnfor          = .true.
   pseudo_dir       = '/users/kbadger1/espresso/pseudo/pslibrary.1.0.0/pbe/PSEUDOPOTENTIALS/'
/
&SYSTEM
   ecutwfc          = 40
   ecutrho          = 410
   nosym            = .true.
   occupations      = 'smearing'
   degauss          = 0.02
   smearing         = 'marzari-vanderbilt'
   nspin            = 1
   input_dft        = 'beef-vdw'
   ntyp             = 3
   nat              = 38
   ibrav            = 0
/
&ELECTRONS
   mixing_mode      = 'local-TF'
/
&IONS
/
&CELL
/
&FCP
/
&RISM
/
ATOMIC_SPECIES
Pt 195.084 Pt.pbe-n-kjpaw_psl.1.0.0.UPF
H 1.008 H.pbe-kjpaw_psl.1.0.0.UPF
C 12.011 C.pbe-n-kjpaw_psl.1.0.0.UPF

K_POINTS automatic
5 5 1  0 0 0

CELL_PARAMETERS angstrom
8.46831000000000 0.00000000000000 0.00000000000000
4.23415500000000 7.33377158712180 0.00000000000000
0.00000000000000 0.00000000000000 24.96566199000000

ATOMIC_POSITIONS angstrom
Pt 0.0000000000 0.0000000000 8.5000000000   0 0 0
Pt 2.8284271247 0.0000000000 8.5000000000   0 0 0
Pt 5.6568542495 0.0000000000 8.5000000000   0 0 0
Pt 1.4142135624 2.4494897428 8.5000000000   0 0 0
Pt 4.2426406871 2.4494897428 8.5000000000   0 0 0
Pt 7.0710678119 2.4494897428 8.5000000000   0 0 0
Pt 2.8284271247 4.8989794856 8.5000000000   0 0 0
Pt 5.6568542495 4.8989794856 8.5000000000   0 0 0
Pt 8.4852813742 4.8989794856 8.5000000000   0 0 0
Pt 1.4142135624 0.8164965809 10.8094010768   0 0 0
Pt 4.2426406871 0.8164965809 10.8094010768   0 0 0
Pt 7.0710678119 0.8164965809 10.8094010768   0 0 0
Pt 2.8284271247 3.2659863237 10.8094010768   0 0 0
Pt 5.6568542495 3.2659863237 10.8094010768   0 0 0
Pt 8.4852813742 3.2659863237 10.8094010768   0 0 0
Pt 4.2426406871 5.7154760665 10.8094010768   0 0 0
Pt 7.0710678119 5.7154760665 10.8094010768   0 0 0
Pt 9.8994949366 5.7154760665 10.8094010768   0 0 0
Pt 0.0203072104 1.6567343261 13.1238634736  
Pt 2.8272281007 1.6558754624 13.1213811324  
Pt 5.6582922369 1.6585941390 13.0854254095  
Pt 1.4245834764 4.0980750783 13.1300822118  
Pt 4.2418217489 4.1065257856 13.0861644752  
Pt 7.0747964216 4.1065416321 13.0853765565  
Pt 2.8509592033 6.5636328820 13.1261169807  
Pt 5.6584766000 6.5581226768 13.1184311413  
Pt 8.4678469673 6.5625285237 13.1228738960  
Pt -0.0448859560 0.0494965599 15.5633001420  
Pt 2.8951842789 0.0496772234 15.5610440122  
Pt 5.6590914009 0.0760298749 15.4421432663  
Pt 1.4251177424 2.6791036770 15.5165895166  
Pt 4.2788092956 2.5329065770 15.4093519101  
Pt 7.0399309336 2.5330607053 15.4099531308  
Pt 2.8531285915 4.9895425892 15.4434807254  
Pt 5.6595349686 4.9283507530 15.4082959906  
Pt 8.4655693380 4.9897729963 15.4424969873  
H 1.4264076847 1.9973068646 17.2032292584  
C 1.4260487322 0.9310265308 16.5171189710  

