&CONTROL
   tprnfor          = .true.
   pseudo_dir       = '/users/kbadger1/espresso/pseudo/pslibrary.1.0.0/pbe/PSEUDOPOTENTIALS/'
/
&SYSTEM
   ecutwfc          = 40
   ecutrho          = 410
   nosym            = .true.
   occupations      = 'smearing'
   degauss          = 0.02
   smearing         = 'marzari-vanderbilt'
   nspin            = 1
   input_dft        = 'beef-vdw'
   ntyp             = 2
   nat              = 37
   ibrav            = 0
/
&ELECTRONS
   mixing_mode      = 'local-TF'
/
&IONS
/
&CELL
/
&FCP
/
&RISM
/
ATOMIC_SPECIES
Pt 195.084 Pt.pbe-n-kjpaw_psl.1.0.0.UPF
H 1.008 H.pbe-kjpaw_psl.1.0.0.UPF

K_POINTS automatic
5 5 1  0 0 0

CELL_PARAMETERS angstrom
8.46831000000000 0.00000000000000 0.00000000000000
4.23415500000000 7.33377158712180 0.00000000000000
0.00000000000000 0.00000000000000 24.96566199000000

ATOMIC_POSITIONS angstrom
Pt 0.0000000000 0.0000000000 8.5000000000   0 0 0
Pt 2.8284271247 0.0000000000 8.5000000000   0 0 0
Pt 5.6568542495 0.0000000000 8.5000000000   0 0 0
Pt 1.4142135624 2.4494897428 8.5000000000   0 0 0
Pt 4.2426406871 2.4494897428 8.5000000000   0 0 0
Pt 7.0710678119 2.4494897428 8.5000000000   0 0 0
Pt 2.8284271247 4.8989794856 8.5000000000   0 0 0
Pt 5.6568542495 4.8989794856 8.5000000000   0 0 0
Pt 8.4852813742 4.8989794856 8.5000000000   0 0 0
Pt 1.4142135624 0.8164965809 10.8094010768   0 0 0
Pt 4.2426406871 0.8164965809 10.8094010768   0 0 0
Pt 7.0710678119 0.8164965809 10.8094010768   0 0 0
Pt 2.8284271247 3.2659863237 10.8094010768   0 0 0
Pt 5.6568542495 3.2659863237 10.8094010768   0 0 0
Pt 8.4852813742 3.2659863237 10.8094010768   0 0 0
Pt 4.2426406871 5.7154760665 10.8094010768   0 0 0
Pt 7.0710678119 5.7154760665 10.8094010768   0 0 0
Pt 9.8994949366 5.7154760665 10.8094010768   0 0 0
Pt 0.0178370571 1.6384265695 13.1093492552  
Pt 2.8309685618 1.6348104910 13.1150289865  
Pt 5.6593459244 1.6360778647 13.0904217783  
Pt 1.4233801643 4.0730600516 13.1093452670  
Pt 4.2462431858 4.0835270546 13.0903830133  
Pt 7.0713256221 4.0829172539 13.0913875577  
Pt 2.8359260953 6.5267588160 13.0982959541  
Pt 5.6617599958 6.5304090830 13.1093952374  
Pt 8.4730431249 6.5303139463 13.1094258181  
Pt -0.0150626088 -0.0080752653 15.4403206617  
Pt 2.8657690082 -0.0066426880 15.4939649106  
Pt 5.6641683477 0.0117803451 15.4309634313  
Pt 1.4266512611 2.4860289968 15.4939633311  
Pt 4.2729725390 2.4676553620 15.4213235092  
Pt 7.0673297456 2.4583053522 15.4255820189  
Pt 2.8417986588 4.9003086363 15.4308293644  
Pt 5.6621051784 4.8921738678 15.4255710503  
Pt 8.4842385987 4.8988883890 15.4295541664  
H 1.7743505216 1.0249010004 16.4464184055  

