&CONTROL
   tprnfor          = .true.
   pseudo_dir       = '/users/kbadger1/espresso/pseudo/pslibrary.1.0.0/pbe/PSEUDOPOTENTIALS/'
/
&SYSTEM
   ecutwfc          = 40
   ecutrho          = 410
   nosym            = .true.
   occupations      = 'smearing'
   degauss          = 0.02
   smearing         = 'marzari-vanderbilt'
   nspin            = 1
   input_dft        = 'beef-vdw'
   ntyp             = 2
   nat              = 37
   ibrav            = 0
/
&ELECTRONS
   conv_thr         = 1e-08
   mixing_mode      = 'local-TF'
/
&IONS
/
&CELL
/
&FCP
/
&RISM
/
ATOMIC_SPECIES
Pt 195.084 Pt.pbe-n-kjpaw_psl.1.0.0.UPF
H 1.008 H.pbe-kjpaw_psl.1.0.0.UPF

K_POINTS automatic
5 5 1  0 0 0

CELL_PARAMETERS angstrom
8.48528137423857 0.00000000000000 0.00000000000000
4.24264068711929 7.34846922834953 0.00000000000000
0.00000000000000 0.00000000000000 23.92820323027551

ATOMIC_POSITIONS angstrom
Pt 0.0000000000 0.0000000000 8.5000000000   0 0 0
Pt 2.8284271247 0.0000000000 8.5000000000   0 0 0
Pt 5.6568542495 0.0000000000 8.5000000000   0 0 0
Pt 1.4142135624 2.4494897428 8.5000000000   0 0 0
Pt 4.2426406871 2.4494897428 8.5000000000   0 0 0
Pt 7.0710678119 2.4494897428 8.5000000000   0 0 0
Pt 2.8284271247 4.8989794856 8.5000000000   0 0 0
Pt 5.6568542495 4.8989794856 8.5000000000   0 0 0
Pt 8.4852813742 4.8989794856 8.5000000000   0 0 0
Pt 1.4142135624 0.8164965809 10.8094010768   0 0 0
Pt 4.2426406871 0.8164965809 10.8094010768   0 0 0
Pt 7.0710678119 0.8164965809 10.8094010768   0 0 0
Pt 2.8284271247 3.2659863237 10.8094010768   0 0 0
Pt 5.6568542495 3.2659863237 10.8094010768   0 0 0
Pt 8.4852813742 3.2659863237 10.8094010768   0 0 0
Pt 4.2426406871 5.7154760665 10.8094010768   0 0 0
Pt 7.0710678119 5.7154760665 10.8094010768   0 0 0
Pt 9.8994949366 5.7154760665 10.8094010768   0 0 0
Pt 0.0050001493 1.6336479442 13.1017964148  
Pt 2.8248126954 1.6312524735 13.1096408119  
Pt 5.6577474252 1.6321877706 13.0870287988  
Pt 1.4131531420 4.0727713335 13.1025589906  
Pt 4.2421509368 4.0841613657 13.0868950956  
Pt 7.0719592018 4.0833323578 13.0883890898  
Pt 2.8275656007 6.5318243334 13.0886286804  
Pt 5.6596486835 6.5364870910 13.1017860278  
Pt 8.4760134377 6.5364884222 13.1025343365  
Pt -0.0310465812 -0.0171787410 15.4277970063  
Pt 2.8572060449 -0.0154833034 15.4811823272  
Pt 5.6610000103 0.0028373684 15.4198322748  
Pt 1.4145635822 2.4831890976 15.4813506098  
Pt 4.2671154739 2.4644235050 15.4124500106  
Pt 7.0669366655 2.4549484533 15.4167738932  
Pt 2.8323612200 4.9021706828 15.4199379335  
Pt 5.6588294175 4.8937153200 15.4167880235  
Pt 8.4869452190 4.9006488951 15.4196062713  
H 1.7615727755 1.0176643188 16.4285086995  

