Pt H 
 1.0000000000000000
     8.4683100000000007    0.0000000000000000    0.0000000000000000
     4.2341550000000012    7.3337715871217997    0.0000000000000000
     0.0000000000000000    0.0000000000000000   24.9656619900000010
 Pt  H  
  36   1
Selective dynamics
Cartesian
  0.0000000000000000  0.0000000000000000  8.5000000000000000   F   F   F
  2.8284271247461903  0.0000000000000000  8.5000000000000000   F   F   F
  5.6568542494923806  0.0000000000000000  8.5000000000000000   F   F   F
  1.4142135623730951  2.4494897427831779  8.5000000000000000   F   F   F
  4.2426406871192857  2.4494897427831779  8.5000000000000000   F   F   F
  7.0710678118654755  2.4494897427831779  8.5000000000000000   F   F   F
  2.8284271247461903  4.8989794855663558  8.5000000000000000   F   F   F
  5.6568542494923806  4.8989794855663558  8.5000000000000000   F   F   F
  8.4852813742385713  4.8989794855663558  8.5000000000000000   F   F   F
  1.4142135623730951  0.8164965809277259 10.8094010767585029   F   F   F
  4.2426406871192848  0.8164965809277259 10.8094010767585029   F   F   F
  7.0710678118654755  0.8164965809277259 10.8094010767585029   F   F   F
  2.8284271247461903  3.2659863237109037 10.8094010767585029   F   F   F
  5.6568542494923806  3.2659863237109037 10.8094010767585029   F   F   F
  8.4852813742385713  3.2659863237109037 10.8094010767585029   F   F   F
  4.2426406871192857  5.7154760664940820 10.8094010767585029   F   F   F
  7.0710678118654755  5.7154760664940820 10.8094010767585029   F   F   F
  9.8994949366116671  5.7154760664940820 10.8094010767585029   F   F   F
  0.0184358621742571  1.6376324568225580 13.1134686141760053   T   T   T
  2.8336562088900354  1.6374672416574472 13.1114762050815710   T   T   T
  5.6598884178797091  1.6364008293659462 13.0864091066893007   T   T   T
  1.4276232092830363  4.0739393466901026 13.1078689650737878   T   T   T
  4.2477948271553725  4.0834534131071898 13.0876230318740578   T   T   T
  7.0722546797977932  4.0837718403418428 13.0863415208076290   T   T   T
  2.8449358206860165  6.5314021698614573 13.1049899666591205   T   T   T
  5.6605483397906982  6.5320808950063798 13.1117653240425618   T   T   T
  8.4783780906109563  6.5305721373726886 13.1013391094647105   T   T   T
 -0.0068504140901113 -0.0031049251734043 15.4716487192426086   T   T   T
  2.8610420385390500 -0.0033884134334435 15.4683902966702860   T   T   T
  5.6609108140576119  0.0131479070709750 15.4254100209130804   T   T   T
  1.4277522756563927  2.5012521550678910 15.4813959172804374   T   T   T
  4.2658426269988654  2.4617560408432468 15.4172293309517539   T   T   T
  7.0569695550251801  2.4618905679190757 15.4157939105281478   T   T   T
  2.8432991484749790  4.9040712394795642 15.4233903962554404   T   T   T
  5.6610468203901068  4.8893888353841533 15.4170885215577780   T   T   T
  8.4796132582355632  4.9041868578768177 15.4217445256634917   T   T   T
  1.4260284345474836  1.0283931621083848 16.4096779438661144   T   T   T
