&CONTROL
   tprnfor          = .true.
   pseudo_dir       = '/users/kbadger1/espresso/pseudo/pslibrary.1.0.0/pbe/PSEUDOPOTENTIALS/'
/
&SYSTEM
   ecutwfc          = 40
   ecutrho          = 410
   nosym            = .true.
   occupations      = 'smearing'
   degauss          = 0.001
   smearing         = 'marzari-vanderbilt'
   nspin            = 1
   input_dft        = 'beef-vdw'
   ntyp             = 4
   nat              = 41
   ibrav            = 0
/
&ELECTRONS
   mixing_mode      = 'local-TF'
/
&IONS
/
&CELL
/
&FCP
/
&RISM
/
ATOMIC_SPECIES
Pt 195.084 Pt.pbe-n-kjpaw_psl.1.0.0.UPF
O 15.999 O.pbe-nl-kjpaw_psl.1.0.0.UPF
H 1.008 H.pbe-kjpaw_psl.1.0.0.UPF
C 12.011 C.pbe-n-kjpaw_psl.1.0.0.UPF

K_POINTS automatic
5 5 1  0 0 0

CELL_PARAMETERS angstrom
8.48528137423857 0.00000000000000 0.00000000000000
4.24264068711929 7.34846922834953 0.00000000000000
0.00000000000000 0.00000000000000 23.92820323027551

ATOMIC_POSITIONS angstrom
Pt 0.0000000000 0.0000000000 8.5000000000   0 0 0
Pt 2.8284271247 0.0000000000 8.5000000000   0 0 0
Pt 5.6568542495 0.0000000000 8.5000000000   0 0 0
Pt 1.4142135624 2.4494897428 8.5000000000   0 0 0
Pt 4.2426406871 2.4494897428 8.5000000000   0 0 0
Pt 7.0710678119 2.4494897428 8.5000000000   0 0 0
Pt 2.8284271247 4.8989794856 8.5000000000   0 0 0
Pt 5.6568542495 4.8989794856 8.5000000000   0 0 0
Pt 8.4852813742 4.8989794856 8.5000000000   0 0 0
Pt 1.4142135624 0.8164965809 10.8094010768   0 0 0
Pt 4.2426406871 0.8164965809 10.8094010768   0 0 0
Pt 7.0710678119 0.8164965809 10.8094010768   0 0 0
Pt 2.8284271247 3.2659863237 10.8094010768   0 0 0
Pt 5.6568542495 3.2659863237 10.8094010768   0 0 0
Pt 8.4852813742 3.2659863237 10.8094010768   0 0 0
Pt 4.2426406871 5.7154760665 10.8094010768   0 0 0
Pt 7.0710678119 5.7154760665 10.8094010768   0 0 0
Pt 9.8994949366 5.7154760665 10.8094010768   0 0 0
Pt -0.0345663817 1.6845344968 13.1202585443  
Pt 2.8118629868 1.7136034106 13.1289053844  
Pt 5.6068613411 1.7184070631 13.1350226963  
Pt 1.3961029684 4.1566304515 13.1248122361  
Pt 4.2123773156 4.1344928679 13.1280991079  
Pt 7.0295710420 4.1552534775 13.1269348984  
Pt 2.7983124658 6.6033647761 13.0956218822  
Pt 5.6213282940 6.5980630950 13.1007948969  
Pt 8.4536444106 6.5982633570 13.0894329407  
Pt -0.0532698044 0.2309191345 15.4811847326  
Pt 2.7894479564 0.1276827711 15.4041101458  
Pt 5.5859546124 0.1311961206 15.4058634117  
Pt 1.3462596954 2.5666515448 15.4399477790  
Pt 4.1824714441 2.5382060698 15.6593138665  
Pt 7.0316940327 2.5641426304 15.4527869909  
Pt 2.6869698727 4.9652429820 15.4365115116  
Pt 5.6981775847 4.9537575250 15.4602848590  
Pt 8.4351932995 5.0215507059 15.4398453458  
O 4.1936436914 5.8363556919 16.5612675793  
H 3.7034374389 3.7715926920 17.9326319202  
H 5.0642970841 2.6270250110 18.1372786011  
H 3.3778645114 2.0147920461 18.1236917940  
C 4.0637911347 2.7642060282 17.7370533113  

