&CONTROL
   tprnfor          = .true.
   pseudo_dir       = '/users/kbadger1/espresso/pseudo/pslibrary.1.0.0/pbe/PSEUDOPOTENTIALS/'
/
&SYSTEM
   ecutwfc          = 40
   ecutrho          = 410
   nosym            = .true.
   occupations      = 'smearing'
   degauss          = 0.001
   smearing         = 'marzari-vanderbilt'
   nspin            = 1
   input_dft        = 'beef-vdw'
   ntyp             = 3
   nat              = 39
   ibrav            = 0
/
&ELECTRONS
   conv_thr         = 1e-08
   mixing_mode      = 'local-TF'
/
&IONS
/
&CELL
/
&FCP
/
&RISM
/
ATOMIC_SPECIES
Pt 195.084 Pt.pbe-n-kjpaw_psl.1.0.0.UPF
O 15.999 O.pbe-nl-kjpaw_psl.1.0.0.UPF
H 1.008 H.pbe-kjpaw_psl.1.0.0.UPF

K_POINTS automatic
5 5 1  0 0 0

CELL_PARAMETERS angstrom
8.48528137423857 0.00000000000000 0.00000000000000
4.24264068711929 7.34846922834953 0.00000000000000
0.00000000000000 0.00000000000000 23.92820323027551

ATOMIC_POSITIONS angstrom
Pt 0.0000000000 0.0000000000 8.5000000000   0 0 0
Pt 2.8284271247 0.0000000000 8.5000000000   0 0 0
Pt 5.6568542495 0.0000000000 8.5000000000   0 0 0
Pt 1.4142135624 2.4494897428 8.5000000000   0 0 0
Pt 4.2426406871 2.4494897428 8.5000000000   0 0 0
Pt 7.0710678119 2.4494897428 8.5000000000   0 0 0
Pt 2.8284271247 4.8989794856 8.5000000000   0 0 0
Pt 5.6568542495 4.8989794856 8.5000000000   0 0 0
Pt 8.4852813742 4.8989794856 8.5000000000   0 0 0
Pt 1.4142135624 0.8164965809 10.8094010768   0 0 0
Pt 4.2426406871 0.8164965809 10.8094010768   0 0 0
Pt 7.0710678119 0.8164965809 10.8094010768   0 0 0
Pt 2.8284271247 3.2659863237 10.8094010768   0 0 0
Pt 5.6568542495 3.2659863237 10.8094010768   0 0 0
Pt 8.4852813742 3.2659863237 10.8094010768   0 0 0
Pt 4.2426406871 5.7154760665 10.8094010768   0 0 0
Pt 7.0710678119 5.7154760665 10.8094010768   0 0 0
Pt 9.8994949366 5.7154760665 10.8094010768   0 0 0
Pt -0.0644953631 1.6845819717 13.0881698764  
Pt 2.7616515586 1.6972772403 13.1174728648  
Pt 5.5895443258 1.6822822443 13.1186537765  
Pt 1.3416199616 4.1457796888 13.1103005398  
Pt 4.1591743923 4.1069878710 13.1633936608  
Pt 7.0016455920 4.1452487733 13.0965252616  
Pt 2.7556158900 6.5870626311 13.1112452235  
Pt 5.5764960751 6.5798905070 13.0825815818  
Pt 8.4230990308 6.5976754596 13.1138491008  
Pt -0.1453956599 0.1231224737 15.4398929013  
Pt 2.6636544557 0.0925498310 15.3980002611  
Pt 5.5252099767 0.1068250714 15.5173234794  
Pt 1.2560153040 2.5748503464 15.4286213614  
Pt 4.0941233461 2.6257162494 15.4922822754  
Pt 6.9565609730 2.5790151680 15.4084796497  
Pt 2.6708102839 5.0524387147 15.4686677528  
Pt 5.5248530431 5.0384715902 15.4428345582  
Pt 8.3439800172 5.0238327402 15.4494734823  
O 4.3326236047 1.9473264973 17.5443525875  
H 4.9621907354 2.5930064197 17.9252192889  
H 4.9613140606 0.9715738180 17.0522943461  

