&CONTROL
   tprnfor          = .true.
   pseudo_dir       = '/users/kbadger1/espresso/pseudo/pslibrary.1.0.0/pbe/PSEUDOPOTENTIALS/'
/
&SYSTEM
   ecutwfc          = 40
   ecutrho          = 410
   nosym            = .true.
   occupations      = 'smearing'
   degauss          = 0.02
   smearing         = 'marzari-vanderbilt'
   nspin            = 1
   input_dft        = 'beef-vdw'
   ntyp             = 3
   nat              = 38
   ibrav            = 0
/
&ELECTRONS
   mixing_mode      = 'local-TF'
/
&IONS
/
&CELL
/
&FCP
/
&RISM
/
ATOMIC_SPECIES
Pt 195.084 Pt.pbe-n-kjpaw_psl.1.0.0.UPF
H 1.008 H.pbe-kjpaw_psl.1.0.0.UPF
C 12.011 C.pbe-n-kjpaw_psl.1.0.0.UPF

K_POINTS automatic
5 5 1  0 0 0

CELL_PARAMETERS angstrom
8.46831000000000 0.00000000000000 0.00000000000000
4.23415500000000 7.33377158712180 0.00000000000000
0.00000000000000 0.00000000000000 24.96566199000000

ATOMIC_POSITIONS angstrom
Pt 0.0000000000 0.0000000000 8.5000000000   0 0 0
Pt 2.8284271247 0.0000000000 8.5000000000   0 0 0
Pt 5.6568542495 0.0000000000 8.5000000000   0 0 0
Pt 1.4142135624 2.4494897428 8.5000000000   0 0 0
Pt 4.2426406871 2.4494897428 8.5000000000   0 0 0
Pt 7.0710678119 2.4494897428 8.5000000000   0 0 0
Pt 2.8284271247 4.8989794856 8.5000000000   0 0 0
Pt 5.6568542495 4.8989794856 8.5000000000   0 0 0
Pt 8.4852813742 4.8989794856 8.5000000000   0 0 0
Pt 1.4142135624 0.8164965809 10.8094010768   0 0 0
Pt 4.2426406871 0.8164965809 10.8094010768   0 0 0
Pt 7.0710678119 0.8164965809 10.8094010768   0 0 0
Pt 2.8284271247 3.2659863237 10.8094010768   0 0 0
Pt 5.6568542495 3.2659863237 10.8094010768   0 0 0
Pt 8.4852813742 3.2659863237 10.8094010768   0 0 0
Pt 4.2426406871 5.7154760665 10.8094010768   0 0 0
Pt 7.0710678119 5.7154760665 10.8094010768   0 0 0
Pt 9.8994949366 5.7154760665 10.8094010768   0 0 0
Pt 0.0154336671 1.6685877415 13.1106776890  
Pt 2.8318211085 1.6674729094 13.1080588788  
Pt 5.6579764677 1.6675429300 13.0888030848  
Pt 1.4242827055 4.1404784703 13.0788116694  
Pt 4.2444307246 4.1182360589 13.0907617091  
Pt 7.0719014539 4.1183548306 13.0900567912  
Pt 2.8538235146 6.5769917001 13.1240991510  
Pt 5.6586088897 6.5697152858 13.1279134459  
Pt 8.4646043165 6.5759077297 13.1210728653  
Pt -0.0195198616 0.0847430700 15.5818531414  
Pt 2.8708088585 0.0847324721 15.5800403702  
Pt 5.6593610581 0.0931794298 15.4381837332  
Pt 1.4255141419 2.6593038250 15.4255092880  
Pt 4.2782719241 2.5505443075 15.4171688358  
Pt 7.0403099705 2.5507038607 15.4177594514  
Pt 2.8491294929 5.0021930632 15.4363146897  
Pt 5.6595141310 4.9522291998 15.4244292828  
Pt 8.4695464420 5.0022141017 15.4350974617  
H 1.4267527628 1.4612666866 17.5734000080  
C 1.4264902632 1.0412260675 16.5664975659  

