&CONTROL
   tprnfor          = .true.
   pseudo_dir       = '/users/kbadger1/espresso/pseudo/pslibrary.1.0.0/pbe/PSEUDOPOTENTIALS/'
/
&SYSTEM
   ecutwfc          = 40
   ecutrho          = 410
   nosym            = .true.
   occupations      = 'smearing'
   degauss          = 0.02
   smearing         = 'marzari-vanderbilt'
   nspin            = 1
   input_dft        = 'beef-vdw'
   ntyp             = 3
   nat              = 38
   ibrav            = 0
/
&ELECTRONS
   conv_thr         = 1e-08
   mixing_mode      = 'local-TF'
/
&IONS
/
&CELL
/
&FCP
/
&RISM
/
ATOMIC_SPECIES
Pt 195.084 Pt.pbe-n-kjpaw_psl.1.0.0.UPF
C 12.011 C.pbe-n-kjpaw_psl.1.0.0.UPF
H 1.008 H.pbe-kjpaw_psl.1.0.0.UPF

K_POINTS automatic
5 5 1  0 0 0

CELL_PARAMETERS angstrom
8.48528137423857 0.00000000000000 0.00000000000000
4.24264068711929 7.34846922834953 0.00000000000000
0.00000000000000 0.00000000000000 23.92820323027551

ATOMIC_POSITIONS angstrom
Pt 0.0000000000 0.0000000000 8.5000000000   0 0 0
Pt 2.8284271247 0.0000000000 8.5000000000   0 0 0
Pt 5.6568542495 0.0000000000 8.5000000000   0 0 0
Pt 1.4142135624 2.4494897428 8.5000000000   0 0 0
Pt 4.2426406871 2.4494897428 8.5000000000   0 0 0
Pt 7.0710678119 2.4494897428 8.5000000000   0 0 0
Pt 2.8284271247 4.8989794856 8.5000000000   0 0 0
Pt 5.6568542495 4.8989794856 8.5000000000   0 0 0
Pt 8.4852813742 4.8989794856 8.5000000000   0 0 0
Pt 1.4142135624 0.8164965809 10.8094010768   0 0 0
Pt 4.2426406871 0.8164965809 10.8094010768   0 0 0
Pt 7.0710678119 0.8164965809 10.8094010768   0 0 0
Pt 2.8284271247 3.2659863237 10.8094010768   0 0 0
Pt 5.6568542495 3.2659863237 10.8094010768   0 0 0
Pt 8.4852813742 3.2659863237 10.8094010768   0 0 0
Pt 4.2426406871 5.7154760665 10.8094010768   0 0 0
Pt 7.0710678119 5.7154760665 10.8094010768   0 0 0
Pt 9.8994949366 5.7154760665 10.8094010768   0 0 0
Pt 0.0100645777 1.6471078683 13.1181092920  
Pt 2.8202723939 1.6471017228 13.1182548764  
Pt 5.6577492396 1.6515294304 13.0798036108  
Pt 1.4151805657 4.0810055786 13.1334311873  
Pt 4.2395370177 4.1023297155 13.0805276811  
Pt 7.0760035788 4.1023353326 13.0804693526  
Pt 2.8425527938 6.5623120897 13.1116769395  
Pt 5.6578053442 6.5602861184 13.1095166233  
Pt 8.4729431257 6.5623375308 13.1117987828  
Pt -0.0788234362 0.0110475468 15.5367256570  
Pt 2.9110801800 0.0109196464 15.5372103909  
Pt 5.6587413766 0.0539764679 15.4252537047  
Pt 1.4160994238 2.6575929005 15.5548125528  
Pt 4.2746892722 2.5163753986 15.3969602092  
Pt 7.0428351138 2.5163785929 15.3968717245  
Pt 2.8422532704 4.9722232121 15.4248208150  
Pt 5.6587783718 4.9158118832 15.3952600889  
Pt 8.4753748898 4.9722200210 15.4247924293  
C 1.4160357474 0.8559372565 16.4282709144  
H 1.4163569385 2.0731379023 17.1658038125  

