&CONTROL
   tprnfor          = .true.
   pseudo_dir       = '/users/kbadger1/espresso/pseudo/pslibrary.1.0.0/pbe/PSEUDOPOTENTIALS/'
/
&SYSTEM
   ecutwfc          = 40
   ecutrho          = 410
   nosym            = .true.
   occupations      = 'smearing'
   degauss          = 0.001
   smearing         = 'marzari-vanderbilt'
   nspin            = 1
   input_dft        = 'beef-vdw'
   ntyp             = 3
   nat              = 38
   ibrav            = 0
/
&ELECTRONS
   conv_thr         = 1e-08
   mixing_mode      = 'local-TF'
/
&IONS
/
&CELL
/
&FCP
/
&RISM
/
ATOMIC_SPECIES
Pt 195.084 Pt.pbe-n-kjpaw_psl.1.0.0.UPF
C 12.011 C.pbe-n-kjpaw_psl.1.0.0.UPF
H 1.008 H.pbe-kjpaw_psl.1.0.0.UPF

K_POINTS automatic
5 5 1  0 0 0

CELL_PARAMETERS angstrom
8.48528137423857 0.00000000000000 0.00000000000000
4.24264068711929 7.34846922834953 0.00000000000000
0.00000000000000 0.00000000000000 23.92820323027551

ATOMIC_POSITIONS angstrom
Pt 0.0000000000 0.0000000000 8.5000000000   0 0 0
Pt 2.8284271247 0.0000000000 8.5000000000   0 0 0
Pt 5.6568542495 0.0000000000 8.5000000000   0 0 0
Pt 1.4142135624 2.4494897428 8.5000000000   0 0 0
Pt 4.2426406871 2.4494897428 8.5000000000   0 0 0
Pt 7.0710678119 2.4494897428 8.5000000000   0 0 0
Pt 2.8284271247 4.8989794856 8.5000000000   0 0 0
Pt 5.6568542495 4.8989794856 8.5000000000   0 0 0
Pt 8.4852813742 4.8989794856 8.5000000000   0 0 0
Pt 1.4142135624 0.8164965809 10.8094010768   0 0 0
Pt 4.2426406871 0.8164965809 10.8094010768   0 0 0
Pt 7.0710678119 0.8164965809 10.8094010768   0 0 0
Pt 2.8284271247 3.2659863237 10.8094010768   0 0 0
Pt 5.6568542495 3.2659863237 10.8094010768   0 0 0
Pt 8.4852813742 3.2659863237 10.8094010768   0 0 0
Pt 4.2426406871 5.7154760665 10.8094010768   0 0 0
Pt 7.0710678119 5.7154760665 10.8094010768   0 0 0
Pt 9.8994949366 5.7154760665 10.8094010768   0 0 0
Pt 0.0053875435 1.6705510191 13.1259842248  
Pt 2.8230153183 1.6705550972 13.1259715162  
Pt 5.6568661675 1.6688091570 13.0922722210  
Pt 1.4141879046 4.1290791443 13.1000614621  
Pt 4.2422735995 4.1245585862 13.0929748620  
Pt 7.0714571614 4.1245502820 13.0929704558  
Pt 2.8455250772 6.5860472480 13.1216238877  
Pt 5.6568457825 6.5824760437 13.1410250616  
Pt 8.4681661469 6.5860193520 13.1216273266  
Pt -0.0323934765 0.0752268825 15.5889807149  
Pt 2.8607821653 0.0752410708 15.5889966917  
Pt 5.6568534500 0.0880445066 15.4377507569  
Pt 1.4142042122 2.6273533834 15.5079570600  
Pt 4.2713658574 2.5483763041 15.4165905288  
Pt 7.0423331963 2.5483680079 15.4165815932  
Pt 2.8388906268 4.9964938924 15.4310493692  
Pt 5.6568377312 4.9541145721 15.4236565098  
Pt 8.4748016828 4.9964884912 15.4310514505  
C 1.4141776464 0.9888127805 16.6229335667  
H 1.4141772329 1.1389931195 17.7047925433  

