&CONTROL
   tprnfor          = .true.
   pseudo_dir       = '/users/kbadger1/espresso/pseudo/pslibrary.1.0.0/pbe/PSEUDOPOTENTIALS/'
/
&SYSTEM
   ecutwfc          = 40
   ecutrho          = 410
   nosym            = .true.
   occupations      = 'smearing'
   degauss          = 0.02
   smearing         = 'marzari-vanderbilt'
   nspin            = 1
   input_dft        = 'beef-vdw'
   ntyp             = 3
   nat              = 38
   ibrav            = 0
/
&ELECTRONS
   mixing_mode      = 'local-TF'
/
&IONS
/
&CELL
/
&FCP
/
&RISM
/
ATOMIC_SPECIES
Pt 195.084 Pt.pbe-n-kjpaw_psl.1.0.0.UPF
H 1.008 H.pbe-kjpaw_psl.1.0.0.UPF
C 12.011 C.pbe-n-kjpaw_psl.1.0.0.UPF

K_POINTS automatic
5 5 1  0 0 0

CELL_PARAMETERS angstrom
8.46831000000000 0.00000000000000 0.00000000000000
4.23415500000000 7.33377158712180 0.00000000000000
0.00000000000000 0.00000000000000 24.96566199000000

ATOMIC_POSITIONS angstrom
Pt 0.0000000000 0.0000000000 8.5000000000   0 0 0
Pt 2.8284271247 0.0000000000 8.5000000000   0 0 0
Pt 5.6568542495 0.0000000000 8.5000000000   0 0 0
Pt 1.4142135624 2.4494897428 8.5000000000   0 0 0
Pt 4.2426406871 2.4494897428 8.5000000000   0 0 0
Pt 7.0710678119 2.4494897428 8.5000000000   0 0 0
Pt 2.8284271247 4.8989794856 8.5000000000   0 0 0
Pt 5.6568542495 4.8989794856 8.5000000000   0 0 0
Pt 8.4852813742 4.8989794856 8.5000000000   0 0 0
Pt 1.4142135624 0.8164965809 10.8094010768   0 0 0
Pt 4.2426406871 0.8164965809 10.8094010768   0 0 0
Pt 7.0710678119 0.8164965809 10.8094010768   0 0 0
Pt 2.8284271247 3.2659863237 10.8094010768   0 0 0
Pt 5.6568542495 3.2659863237 10.8094010768   0 0 0
Pt 8.4852813742 3.2659863237 10.8094010768   0 0 0
Pt 4.2426406871 5.7154760665 10.8094010768   0 0 0
Pt 7.0710678119 5.7154760665 10.8094010768   0 0 0
Pt 9.8994949366 5.7154760665 10.8094010768   0 0 0
Pt 0.0178008649 1.6752292811 13.1203903618  
Pt 2.8298269461 1.6742202495 13.1180053690  
Pt 5.6581488489 1.6729495073 13.0916440212  
Pt 1.4243888134 4.1275582099 13.1007536248  
Pt 4.2456041232 4.1225190650 13.0925018887  
Pt 7.0709796293 4.1226202436 13.0916855919  
Pt 2.8522389290 6.5790040016 13.1224768595  
Pt 5.6586712779 6.5749711749 13.1294990725  
Pt 8.4663014874 6.5779403462 13.1193138468  
Pt -0.0187495773 0.0853347077 15.5817577702  
Pt 2.8693518280 0.0855642544 15.5803701786  
Pt 5.6590951047 0.0968941203 15.4369377560  
Pt 1.4256395114 2.6218482882 15.5059293162  
Pt 4.2772703216 2.5554280817 15.4239368729  
Pt 7.0417349224 2.5556256685 15.4242681597  
Pt 2.8432480887 4.9956888033 15.4325323235  
Pt 5.6597071022 4.9579286263 15.4287428307  
Pt 8.4755744334 4.9959237971 15.4313550555  
H 1.4261577120 1.1299907271 17.7118570745  
C 1.4255783451 0.9873864873 16.6294916079  

