&CONTROL
   tprnfor          = .true.
   pseudo_dir       = '/users/kbadger1/espresso/pseudo/pslibrary.1.0.0/pbe/PSEUDOPOTENTIALS/'
/
&SYSTEM
   ecutwfc          = 40
   ecutrho          = 410
   nosym            = .true.
   occupations      = 'smearing'
   degauss          = 0.001
   smearing         = 'marzari-vanderbilt'
   nspin            = 1
   input_dft        = 'beef-vdw'
   ntyp             = 4
   nat              = 41
   ibrav            = 0
/
&ELECTRONS
   mixing_mode      = 'local-TF'
/
&IONS
/
&CELL
/
&FCP
/
&RISM
/
ATOMIC_SPECIES
Pt 195.084 Pt.pbe-n-kjpaw_psl.1.0.0.UPF
O 15.999 O.pbe-nl-kjpaw_psl.1.0.0.UPF
H 1.008 H.pbe-kjpaw_psl.1.0.0.UPF
C 12.011 C.pbe-n-kjpaw_psl.1.0.0.UPF

K_POINTS automatic
5 5 1  0 0 0

CELL_PARAMETERS angstrom
8.48528137423857 0.00000000000000 0.00000000000000
4.24264068711929 7.34846922834953 0.00000000000000
0.00000000000000 0.00000000000000 23.92820323027551

ATOMIC_POSITIONS angstrom
Pt 0.0000000000 0.0000000000 8.5000000000   0 0 0
Pt 2.8284271247 0.0000000000 8.5000000000   0 0 0
Pt 5.6568542495 0.0000000000 8.5000000000   0 0 0
Pt 1.4142135624 2.4494897428 8.5000000000   0 0 0
Pt 4.2426406871 2.4494897428 8.5000000000   0 0 0
Pt 7.0710678119 2.4494897428 8.5000000000   0 0 0
Pt 2.8284271247 4.8989794856 8.5000000000   0 0 0
Pt 5.6568542495 4.8989794856 8.5000000000   0 0 0
Pt 8.4852813742 4.8989794856 8.5000000000   0 0 0
Pt 1.4142135624 0.8164965809 10.8094010768   0 0 0
Pt 4.2426406871 0.8164965809 10.8094010768   0 0 0
Pt 7.0710678119 0.8164965809 10.8094010768   0 0 0
Pt 2.8284271247 3.2659863237 10.8094010768   0 0 0
Pt 5.6568542495 3.2659863237 10.8094010768   0 0 0
Pt 8.4852813742 3.2659863237 10.8094010768   0 0 0
Pt 4.2426406871 5.7154760665 10.8094010768   0 0 0
Pt 7.0710678119 5.7154760665 10.8094010768   0 0 0
Pt 9.8994949366 5.7154760665 10.8094010768   0 0 0
Pt 0.0140450293 1.5876723127 13.1352150453  
Pt 2.8463084733 1.6281449898 13.1254040330  
Pt 5.6475525657 1.6385834960 13.1354037714  
Pt 1.4820751103 4.0957019520 13.2074032587  
Pt 4.2467250484 4.0617566259 13.1320038352  
Pt 7.1349166393 4.0498705991 13.0681514509  
Pt 2.8405556601 6.5030531276 13.1167494563  
Pt 5.6666468465 6.5216346197 13.0736532121  
Pt 8.4953096907 6.5143586515 13.0894593095  
Pt 0.0067811899 0.0209951100 15.4579655682  
Pt 2.8348823939 -0.0501348440 15.4141224324  
Pt 5.6639796951 -0.0582036764 15.4070284428  
Pt 1.3745301869 2.3948065783 15.4377527635  
Pt 4.3074661246 2.3530454918 15.5521349884  
Pt 7.1005791275 2.4223717635 15.4697342729  
Pt 2.7686304576 4.7857648213 15.6868934255  
Pt 5.7811840545 4.8277349958 15.2926471378  
Pt 8.4887051931 4.8718433907 15.4773157735  
O 3.9921165129 5.8122295139 17.1360935088  
H 3.4361990039 5.9807462053 17.9129304769  
H 4.5217053224 3.4582007982 17.9136487559  
H 3.0443644286 2.3503354654 17.8818114296  
C 3.8376062655 2.8473156159 17.3270885035  

