&CONTROL
   calculation      = 'ensemble'
   tprnfor          = .true.
   pseudo_dir       = '/users/kbadger1/espresso/pseudo/pslibrary.1.0.0/pbe/PSEUDOPOTENTIALS/'
/
&SYSTEM
   ecutwfc          = 50
   ecutrho          = 410
   nosym            = .true.
   occupations      = 'smearing'
   degauss          = 0.02
   smearing         = 'marzari-vanderbilt'
   nspin            = 1
   input_dft        = 'beef-vdw'
   ntyp             = 5
   nat              = 40
   ibrav            = 0
/
&ELECTRONS
   conv_thr         = 1e-08
   mixing_mode      = 'local-TF'
/
&IONS
/
&CELL
/
&FCP
/
&RISM
/
ATOMIC_SPECIES
Pt 195.084 Pt.pbe-n-kjpaw_psl.1.0.0.UPF
C 12.011 C.pbe-n-kjpaw_psl.1.0.0.UPF
H 1.008 H.pbe-kjpaw_psl.1.0.0.UPF
N 14.007 N.pbe-n-kjpaw_psl.1.0.0.UPF
O 15.999 O.pbe-nl-kjpaw_psl.1.0.0.UPF

K_POINTS automatic
5 5 1  0 0 0

CELL_PARAMETERS angstrom
8.48528137423857 0.00000000000000 0.00000000000000
4.24264068711929 7.34846922834953 0.00000000000000
0.00000000000000 0.00000000000000 23.92820323027551

ATOMIC_POSITIONS angstrom
Pt 0.0000000000 0.0000000000 8.5000000000   0 0 0
Pt 2.8284271247 0.0000000000 8.5000000000   0 0 0
Pt 5.6568542495 0.0000000000 8.5000000000   0 0 0
Pt 1.4142135624 2.4494897428 8.5000000000   0 0 0
Pt 4.2426406871 2.4494897428 8.5000000000   0 0 0
Pt 7.0710678119 2.4494897428 8.5000000000   0 0 0
Pt 2.8284271247 4.8989794856 8.5000000000   0 0 0
Pt 5.6568542495 4.8989794856 8.5000000000   0 0 0
Pt 8.4852813742 4.8989794856 8.5000000000   0 0 0
Pt 1.4142135624 0.8164965809 10.8094010768   0 0 0
Pt 4.2426406871 0.8164965809 10.8094010768   0 0 0
Pt 7.0710678119 0.8164965809 10.8094010768   0 0 0
Pt 2.8284271247 3.2659863237 10.8094010768   0 0 0
Pt 5.6568542495 3.2659863237 10.8094010768   0 0 0
Pt 8.4852813742 3.2659863237 10.8094010768   0 0 0
Pt 4.2426406871 5.7154760665 10.8094010768   0 0 0
Pt 7.0710678119 5.7154760665 10.8094010768   0 0 0
Pt 9.8994949366 5.7154760665 10.8094010768   0 0 0
Pt 0.0151395412 1.6177565170 13.1021079530  
Pt 2.8273246344 1.6165132525 13.1432245408  
Pt 5.6426480617 1.6221122168 13.0979741241  
Pt 1.4165659411 4.0518370709 13.1147404999  
Pt 4.2447040078 4.0497900578 13.1195260820  
Pt 7.0750267894 4.0788662662 13.0591653296  
Pt 2.8182185009 6.5414337195 13.1378413798  
Pt 5.6708814189 6.5455865058 13.1366243717  
Pt 8.4608804250 6.5440433311 13.1326539449  
Pt -0.0766388614 -0.0758352653 15.5358172778  
Pt 2.8510272763 -0.0918659563 15.7368534869  
Pt 5.7542932295 -0.0785267849 15.4796376598  
Pt 1.4215314081 2.5579340184 15.5698498345  
Pt 4.2755089348 2.5471037632 15.5356024586  
Pt 7.0822557081 2.4649440683 15.3547096130  
Pt 2.8513455497 4.8913351837 15.4048788358  
Pt 5.6866235826 4.8701707983 15.3856999836  
Pt 8.4874595126 4.8715064979 15.3883450975  
C 1.2943959958 0.8690489045 16.4302402224  
H 3.8804631566 1.4823118774 18.3663696075  
N 4.4310433120 0.8704958756 16.6443082030  
O 4.5914368259 0.8971354443 18.0371432948  

