&CONTROL
   tprnfor          = .true.
   pseudo_dir       = '/users/kbadger1/espresso/pseudo/pslibrary.1.0.0/pbe/PSEUDOPOTENTIALS/'
/
&SYSTEM
   ecutwfc          = 40
   ecutrho          = 410
   nosym            = .true.
   occupations      = 'smearing'
   degauss          = 0.001
   smearing         = 'marzari-vanderbilt'
   nspin            = 1
   input_dft        = 'beef-vdw'
   ntyp             = 3
   nat              = 39
   ibrav            = 0
/
&ELECTRONS
   mixing_mode      = 'local-TF'
/
&IONS
/
&CELL
/
&FCP
/
&RISM
/
ATOMIC_SPECIES
Pt 195.084 Pt.pbe-n-kjpaw_psl.1.0.0.UPF
C 12.011 C.pbe-n-kjpaw_psl.1.0.0.UPF
H 1.008 H.pbe-kjpaw_psl.1.0.0.UPF

K_POINTS automatic
5 5 1  0 0 0

CELL_PARAMETERS angstrom
8.48528137423857 0.00000000000000 0.00000000000000
4.24264068711929 7.34846922834953 0.00000000000000
0.00000000000000 0.00000000000000 23.92820323027551

ATOMIC_POSITIONS angstrom
Pt 0.0000000000 0.0000000000 8.5000000000   0 0 0
Pt 2.8284271247 0.0000000000 8.5000000000   0 0 0
Pt 5.6568542495 0.0000000000 8.5000000000   0 0 0
Pt 1.4142135624 2.4494897428 8.5000000000   0 0 0
Pt 4.2426406871 2.4494897428 8.5000000000   0 0 0
Pt 7.0710678119 2.4494897428 8.5000000000   0 0 0
Pt 2.8284271247 4.8989794856 8.5000000000   0 0 0
Pt 5.6568542495 4.8989794856 8.5000000000   0 0 0
Pt 8.4852813742 4.8989794856 8.5000000000   0 0 0
Pt 1.4142135624 0.8164965809 10.8094010768   0 0 0
Pt 4.2426406871 0.8164965809 10.8094010768   0 0 0
Pt 7.0710678119 0.8164965809 10.8094010768   0 0 0
Pt 2.8284271247 3.2659863237 10.8094010768   0 0 0
Pt 5.6568542495 3.2659863237 10.8094010768   0 0 0
Pt 8.4852813742 3.2659863237 10.8094010768   0 0 0
Pt 4.2426406871 5.7154760665 10.8094010768   0 0 0
Pt 7.0710678119 5.7154760665 10.8094010768   0 0 0
Pt 9.8994949366 5.7154760665 10.8094010768   0 0 0
Pt 0.0297332864 1.6237247768 13.1634317891  
Pt 2.7979016504 1.6236554862 13.1633403950  
Pt 5.6565893571 1.6368492333 13.0545012511  
Pt 1.4137923950 4.0518890817 13.1643670856  
Pt 4.2177911146 4.0808446585 13.1066044587  
Pt 7.0952626819 4.0808458330 13.1065511144  
Pt 2.8461303665 6.5301409681 13.1308437631  
Pt 5.6565445792 6.5349117391 13.1236078343  
Pt 8.4669450521 6.5300616144 13.1307679757  
Pt -0.0477722884 -0.0172683084 15.5604597900  
Pt 2.8749274655 -0.0170179411 15.5604481367  
Pt 5.6562625470 0.0491572036 15.3952474397  
Pt 1.4131349841 2.5990874877 15.8721271730  
Pt 4.2799376394 2.4291235935 15.3939832034  
Pt 7.0323909741 2.4290927127 15.3939581562  
Pt 2.9121489584 4.9412482369 15.5342916691  
Pt 5.6561703225 4.8374748208 15.3844762260  
Pt 8.3999375487 4.9413911177 15.5342017978  
C 1.4135377862 0.6916405887 16.6013488477  
H 1.4127358897 1.9550222724 17.4352274262  
C 1.4133291764 4.5249622801 16.6324800035  

