&CONTROL
   calculation      = 'ensemble'
   tprnfor          = .true.
   pseudo_dir       = '/users/kbadger1/espresso/pseudo/pslibrary.1.0.0/pbe/PSEUDOPOTENTIALS/'
/
&SYSTEM
   ecutwfc          = 50
   ecutrho          = 410
   nosym            = .true.
   occupations      = 'smearing'
   degauss          = 0.02
   smearing         = 'marzari-vanderbilt'
   nspin            = 1
   input_dft        = 'beef-vdw'
   ntyp             = 5
   nat              = 40
   ibrav            = 0
/
&ELECTRONS
   conv_thr         = 1e-08
   mixing_mode      = 'local-TF'
/
&IONS
/
&CELL
/
&FCP
/
&RISM
/
ATOMIC_SPECIES
Pt 195.084 Pt.pbe-n-kjpaw_psl.1.0.0.UPF
C 12.011 C.pbe-n-kjpaw_psl.1.0.0.UPF
H 1.008 H.pbe-kjpaw_psl.1.0.0.UPF
N 14.007 N.pbe-n-kjpaw_psl.1.0.0.UPF
O 15.999 O.pbe-nl-kjpaw_psl.1.0.0.UPF

K_POINTS automatic
5 5 1  0 0 0

CELL_PARAMETERS angstrom
8.48528137423857 0.00000000000000 0.00000000000000
4.24264068711929 7.34846922834953 0.00000000000000
0.00000000000000 0.00000000000000 23.92820323027551

ATOMIC_POSITIONS angstrom
Pt 0.0000000000 0.0000000000 8.5000000000   0 0 0
Pt 2.8284271247 0.0000000000 8.5000000000   0 0 0
Pt 5.6568542495 0.0000000000 8.5000000000   0 0 0
Pt 1.4142135624 2.4494897428 8.5000000000   0 0 0
Pt 4.2426406871 2.4494897428 8.5000000000   0 0 0
Pt 7.0710678119 2.4494897428 8.5000000000   0 0 0
Pt 2.8284271247 4.8989794856 8.5000000000   0 0 0
Pt 5.6568542495 4.8989794856 8.5000000000   0 0 0
Pt 8.4852813742 4.8989794856 8.5000000000   0 0 0
Pt 1.4142135624 0.8164965809 10.8094010768   0 0 0
Pt 4.2426406871 0.8164965809 10.8094010768   0 0 0
Pt 7.0710678119 0.8164965809 10.8094010768   0 0 0
Pt 2.8284271247 3.2659863237 10.8094010768   0 0 0
Pt 5.6568542495 3.2659863237 10.8094010768   0 0 0
Pt 8.4852813742 3.2659863237 10.8094010768   0 0 0
Pt 4.2426406871 5.7154760665 10.8094010768   0 0 0
Pt 7.0710678119 5.7154760665 10.8094010768   0 0 0
Pt 9.8994949366 5.7154760665 10.8094010768   0 0 0
Pt 0.0081031524 1.6178995126 13.1125472320  
Pt 2.8295342724 1.6232297357 13.1286209589  
Pt 5.6498736393 1.6212819649 13.1073303127  
Pt 1.4156834884 4.0589761654 13.1045132163  
Pt 4.2418222825 4.0475432766 13.1237601426  
Pt 7.0714872959 4.0779702828 13.0701535373  
Pt 2.8224876222 6.5414149057 13.1393263170  
Pt 5.6624381410 6.5369183214 13.1371421912  
Pt 8.4742836962 6.5422590689 13.1256832632  
Pt -0.0441133996 -0.0407940326 15.5709630653  
Pt 2.8104522957 -0.0396918633 15.6112487287  
Pt 5.7249280745 -0.0495351763 15.5158410649  
Pt 1.4083773306 2.4964323150 15.5526119194  
Pt 4.2669977431 2.5057091848 15.5486232611  
Pt 7.0819025434 2.4731418742 15.3899579240  
Pt 2.8346471993 4.8924029191 15.4125146284  
Pt 5.6743599096 4.8646054954 15.4101955249  
Pt 8.4864113852 4.8689609441 15.3904550800  
C 1.3208154198 0.8603321944 16.6723986914  
H 1.3437594043 0.8937832560 17.7650917461  
N 4.4227214333 0.8793341767 16.8207374185  
O 4.4546387136 0.9046945346 18.0330376177  

