Pt H 
 1.0000000000000000
     8.4683100000000007    0.0000000000000000    0.0000000000000000
     4.2341550000000012    7.3337715871217997    0.0000000000000000
     0.0000000000000000    0.0000000000000000   24.9656619900000010
 Pt  H  
  36   1
Selective dynamics
Cartesian
  0.0000000000000000  0.0000000000000000  8.5000000000000000   F   F   F
  2.8284271247461903  0.0000000000000000  8.5000000000000000   F   F   F
  5.6568542494923806  0.0000000000000000  8.5000000000000000   F   F   F
  1.4142135623730951  2.4494897427831779  8.5000000000000000   F   F   F
  4.2426406871192857  2.4494897427831779  8.5000000000000000   F   F   F
  7.0710678118654755  2.4494897427831779  8.5000000000000000   F   F   F
  2.8284271247461903  4.8989794855663558  8.5000000000000000   F   F   F
  5.6568542494923806  4.8989794855663558  8.5000000000000000   F   F   F
  8.4852813742385713  4.8989794855663558  8.5000000000000000   F   F   F
  1.4142135623730951  0.8164965809277259 10.8094010767585029   F   F   F
  4.2426406871192848  0.8164965809277259 10.8094010767585029   F   F   F
  7.0710678118654755  0.8164965809277259 10.8094010767585029   F   F   F
  2.8284271247461903  3.2659863237109037 10.8094010767585029   F   F   F
  5.6568542494923806  3.2659863237109037 10.8094010767585029   F   F   F
  8.4852813742385713  3.2659863237109037 10.8094010767585029   F   F   F
  4.2426406871192857  5.7154760664940820 10.8094010767585029   F   F   F
  7.0710678118654755  5.7154760664940820 10.8094010767585029   F   F   F
  9.8994949366116671  5.7154760664940820 10.8094010767585029   F   F   F
  0.0455926005118745  1.6439721071033462 13.1289325847527838   T   T   T
  2.8561794948602199  1.6302416118988636 13.1033196463413528   T   T   T
  5.6810108323520758  1.6330395109224407 13.0895216733259740   T   T   T
  1.4424458178123221  4.0585216789360654 13.1273572379745964   T   T   T
  4.2661835199711131  4.0755979955424637 13.0910121581242631   T   T   T
  7.0912636383799379  4.0774282108908313 13.0935173838585257   T   T   T
  2.8591113973455164  6.5215787461610040 13.0918479768257683   T   T   T
  5.6793663384145283  6.5226289451341026 13.0948470197721818   T   T   T
  8.5043826466499564  6.5180243503784165 13.0913062375012874   T   T   T
  0.0459962536879717 -0.0085102059079632 15.4218526694770564   T   T   T
  2.8855605196251162 -0.0243706021908192 15.4232445229469803   T   T   T
  5.6992819935303265 -0.0051313496366550 15.4212007208007016   T   T   T
  1.4928877489167034  2.4231112521114109 15.5353423893176537   T   T   T
  4.3075934088090024  2.4407521341903582 15.4221396272663664   T   T   T
  7.1083030455942096  2.4383565331336885 15.4251241794913767   T   T   T
  2.8753673239446873  4.8926004410073265 15.4184252218006357   T   T   T
  5.7001423410380525  4.8826372011073502 15.4146055301204949   T   T   T
  8.5220213115861654  4.8872169914034744 15.4257607915739285   T   T   T
  2.0317063233650141  2.1266191688892522 16.9686011043763578   T   T   T
