&CONTROL
   tprnfor          = .true.
   pseudo_dir       = '/users/kbadger1/espresso/pseudo/pslibrary.1.0.0/pbe/PSEUDOPOTENTIALS/'
/
&SYSTEM
   ecutwfc          = 40
   ecutrho          = 410
   nosym            = .true.
   occupations      = 'smearing'
   degauss          = 0.02
   smearing         = 'marzari-vanderbilt'
   nspin            = 1
   input_dft        = 'beef-vdw'
   ntyp             = 3
   nat              = 38
   ibrav            = 0
/
&ELECTRONS
   mixing_mode      = 'local-TF'
/
&IONS
/
&CELL
/
&FCP
/
&RISM
/
ATOMIC_SPECIES
Pt 195.084 Pt.pbe-n-kjpaw_psl.1.0.0.UPF
C 12.011 C.pbe-n-kjpaw_psl.1.0.0.UPF
H 1.008 H.pbe-kjpaw_psl.1.0.0.UPF

K_POINTS automatic
5 5 1  0 0 0

CELL_PARAMETERS angstrom
8.48528137423857 0.00000000000000 0.00000000000000
4.24264068711929 7.34846922834953 0.00000000000000
0.00000000000000 0.00000000000000 23.92820323027551

ATOMIC_POSITIONS angstrom
Pt 0.0000000000 0.0000000000 8.5000000000   0 0 0
Pt 2.8284271247 0.0000000000 8.5000000000   0 0 0
Pt 5.6568542495 0.0000000000 8.5000000000   0 0 0
Pt 1.4142135624 2.4494897428 8.5000000000   0 0 0
Pt 4.2426406871 2.4494897428 8.5000000000   0 0 0
Pt 7.0710678119 2.4494897428 8.5000000000   0 0 0
Pt 2.8284271247 4.8989794856 8.5000000000   0 0 0
Pt 5.6568542495 4.8989794856 8.5000000000   0 0 0
Pt 8.4852813742 4.8989794856 8.5000000000   0 0 0
Pt 1.4142135624 0.8164965809 10.8094010768   0 0 0
Pt 4.2426406871 0.8164965809 10.8094010768   0 0 0
Pt 7.0710678119 0.8164965809 10.8094010768   0 0 0
Pt 2.8284271247 3.2659863237 10.8094010768   0 0 0
Pt 5.6568542495 3.2659863237 10.8094010768   0 0 0
Pt 8.4852813742 3.2659863237 10.8094010768   0 0 0
Pt 4.2426406871 5.7154760665 10.8094010768   0 0 0
Pt 7.0710678119 5.7154760665 10.8094010768   0 0 0
Pt 9.8994949366 5.7154760665 10.8094010768   0 0 0
Pt 0.0158925489 1.6339196949 13.1417466746  
Pt 2.8102354651 1.6338943785 13.1413442160  
Pt 5.6557715493 1.6413271108 13.0816883323  
Pt 1.4130592355 4.0485916275 13.1328021284  
Pt 4.2381534207 4.0845182618 13.0779621681  
Pt 7.0733564059 4.0844956638 13.0780201079  
Pt 2.8361085501 6.5418757704 13.1027727988  
Pt 5.6557011683 6.5445145665 13.1137379595  
Pt 8.4754672253 6.5418669569 13.1025869560  
Pt -0.1382439442 -0.0762792651 15.5233855505  
Pt 2.9622757508 -0.0761972849 15.5224981473  
Pt 5.6546919057 0.0148972512 15.4116704288  
Pt 1.4118769630 2.5903375908 15.7380741706  
Pt 4.2611382984 2.4738854151 15.4021668369  
Pt 7.0480675640 2.4739252990 15.4023358372  
Pt 2.8239821611 4.9061865054 15.4033792299  
Pt 5.6546152651 4.8722114280 15.3903924475  
Pt 8.4851771874 4.9062021923 15.4033326118  
C 1.4121985658 0.7043795321 16.2292511850  
H 1.4112440040 2.6163389787 17.2978144049  

