&CONTROL
   tprnfor          = .true.
   pseudo_dir       = '/users/kbadger1/espresso/pseudo/pslibrary.1.0.0/pbe/PSEUDOPOTENTIALS/'
/
&SYSTEM
   ecutwfc          = 40
   ecutrho          = 410
   nosym            = .true.
   occupations      = 'smearing'
   degauss          = 0.001
   smearing         = 'marzari-vanderbilt'
   nspin            = 1
   input_dft        = 'beef-vdw'
   ntyp             = 3
   nat              = 38
   ibrav            = 0
/
&ELECTRONS
   mixing_mode      = 'local-TF'
/
&IONS
/
&CELL
/
&FCP
/
&RISM
/
ATOMIC_SPECIES
Pt 195.084 Pt.pbe-n-kjpaw_psl.1.0.0.UPF
C 12.011 C.pbe-n-kjpaw_psl.1.0.0.UPF
H 1.008 H.pbe-kjpaw_psl.1.0.0.UPF

K_POINTS automatic
5 5 1  0 0 0

CELL_PARAMETERS angstrom
8.48528137423857 0.00000000000000 0.00000000000000
4.24264068711929 7.34846922834953 0.00000000000000
0.00000000000000 0.00000000000000 23.92820323027551

ATOMIC_POSITIONS angstrom
Pt 0.0000000000 0.0000000000 8.5000000000   0 0 0
Pt 2.8284271247 0.0000000000 8.5000000000   0 0 0
Pt 5.6568542495 0.0000000000 8.5000000000   0 0 0
Pt 1.4142135624 2.4494897428 8.5000000000   0 0 0
Pt 4.2426406871 2.4494897428 8.5000000000   0 0 0
Pt 7.0710678119 2.4494897428 8.5000000000   0 0 0
Pt 2.8284271247 4.8989794856 8.5000000000   0 0 0
Pt 5.6568542495 4.8989794856 8.5000000000   0 0 0
Pt 8.4852813742 4.8989794856 8.5000000000   0 0 0
Pt 1.4142135624 0.8164965809 10.8094010768   0 0 0
Pt 4.2426406871 0.8164965809 10.8094010768   0 0 0
Pt 7.0710678119 0.8164965809 10.8094010768   0 0 0
Pt 2.8284271247 3.2659863237 10.8094010768   0 0 0
Pt 5.6568542495 3.2659863237 10.8094010768   0 0 0
Pt 8.4852813742 3.2659863237 10.8094010768   0 0 0
Pt 4.2426406871 5.7154760665 10.8094010768   0 0 0
Pt 7.0710678119 5.7154760665 10.8094010768   0 0 0
Pt 9.8994949366 5.7154760665 10.8094010768   0 0 0
Pt 0.0203025426 1.6394856097 13.1570355977  
Pt 2.8081272357 1.6394911386 13.1569472139  
Pt 5.6568024696 1.6510236830 13.0850963571  
Pt 1.4142096882 4.0547644492 13.1430308133  
Pt 4.2379505647 4.0921112521 13.0782996235  
Pt 7.0757379891 4.0921339695 13.0783542193  
Pt 2.8373018686 6.5517006086 13.1137669756  
Pt 5.6568890809 6.5535536719 13.1259654037  
Pt 8.4763460065 6.5517115856 13.1137710093  
Pt -0.1379606742 -0.0664725674 15.5445763949  
Pt 2.9663214031 -0.0664384339 15.5443965747  
Pt 5.6568108147 0.0317349857 15.4265570182  
Pt 1.4141811475 2.5992778597 15.7589299774  
Pt 4.2633736543 2.4871579272 15.4013690466  
Pt 7.0503328622 2.4871424001 15.4014074326  
Pt 2.8276874124 4.9158474897 15.4150672006  
Pt 5.6568522775 4.8855701340 15.3860645256  
Pt 8.4859996787 4.9158629342 15.4150607163  
C 1.4142075707 0.7128752901 16.2420612003  
H 1.4143963180 2.6285595507 17.3181469029  

