&CONTROL
   tprnfor          = .true.
   pseudo_dir       = '/users/kbadger1/espresso/pseudo/pslibrary.1.0.0/pbe/PSEUDOPOTENTIALS/'
/
&SYSTEM
   ecutwfc          = 40
   ecutrho          = 410
   nosym            = .true.
   occupations      = 'smearing'
   degauss          = 0.02
   smearing         = 'marzari-vanderbilt'
   nspin            = 1
   input_dft        = 'beef-vdw'
   ntyp             = 3
   nat              = 38
   ibrav            = 0
/
&ELECTRONS
   mixing_mode      = 'local-TF'
/
&IONS
/
&CELL
/
&FCP
/
&RISM
/
ATOMIC_SPECIES
Pt 195.084 Pt.pbe-n-kjpaw_psl.1.0.0.UPF
H 1.008 H.pbe-kjpaw_psl.1.0.0.UPF
C 12.011 C.pbe-n-kjpaw_psl.1.0.0.UPF

K_POINTS automatic
5 5 1  0 0 0

CELL_PARAMETERS angstrom
8.46831000000000 0.00000000000000 0.00000000000000
4.23415500000000 7.33377158712180 0.00000000000000
0.00000000000000 0.00000000000000 24.96566199000000

ATOMIC_POSITIONS angstrom
Pt 0.0000000000 0.0000000000 8.5000000000   0 0 0
Pt 2.8284271247 0.0000000000 8.5000000000   0 0 0
Pt 5.6568542495 0.0000000000 8.5000000000   0 0 0
Pt 1.4142135624 2.4494897428 8.5000000000   0 0 0
Pt 4.2426406871 2.4494897428 8.5000000000   0 0 0
Pt 7.0710678119 2.4494897428 8.5000000000   0 0 0
Pt 2.8284271247 4.8989794856 8.5000000000   0 0 0
Pt 5.6568542495 4.8989794856 8.5000000000   0 0 0
Pt 8.4852813742 4.8989794856 8.5000000000   0 0 0
Pt 1.4142135624 0.8164965809 10.8094010768   0 0 0
Pt 4.2426406871 0.8164965809 10.8094010768   0 0 0
Pt 7.0710678119 0.8164965809 10.8094010768   0 0 0
Pt 2.8284271247 3.2659863237 10.8094010768   0 0 0
Pt 5.6568542495 3.2659863237 10.8094010768   0 0 0
Pt 8.4852813742 3.2659863237 10.8094010768   0 0 0
Pt 4.2426406871 5.7154760665 10.8094010768   0 0 0
Pt 7.0710678119 5.7154760665 10.8094010768   0 0 0
Pt 9.8994949366 5.7154760665 10.8094010768   0 0 0
Pt 0.0274553045 1.6410427916 13.1489784140  
Pt 2.8170814729 1.6403002699 13.1457695722  
Pt 5.6566821832 1.6465523637 13.0852579889  
Pt 1.4227663952 4.0518385571 13.1407118742  
Pt 4.2410316333 4.0859022037 13.0817238022  
Pt 7.0723476662 4.0860057936 13.0811550318  
Pt 2.8435822451 6.5392684483 13.1143758528  
Pt 5.6568926158 6.5404958182 13.1190727270  
Pt 8.4721025059 6.5381607297 13.1110762208  
Pt -0.1238449043 -0.0627353148 15.5353563912  
Pt 2.9663758232 -0.0619531786 15.5316005451  
Pt 5.6554180045 0.0288929772 15.4264451370  
Pt 1.4216534231 2.5922455362 15.7520555850  
Pt 4.2659807306 2.4817957368 15.4119152689  
Pt 7.0458843756 2.4820318865 15.4127749327  
Pt 2.8306469900 4.9070238411 15.4178232748  
Pt 5.6560911245 4.8751026423 15.3992481710  
Pt 8.4809425153 4.9075563494 15.4171750488  
H 1.4228372668 2.6273019703 17.3113214494  
C 1.4218073739 0.7083661436 16.2620534580  

