&CONTROL
   tprnfor          = .true.
   pseudo_dir       = '/users/kbadger1/espresso/pseudo/pslibrary.1.0.0/pbe/PSEUDOPOTENTIALS/'
/
&SYSTEM
   ecutwfc          = 40
   ecutrho          = 410
   nosym            = .true.
   occupations      = 'smearing'
   degauss          = 0.02
   smearing         = 'marzari-vanderbilt'
   nspin            = 1
   input_dft        = 'beef-vdw'
   ntyp             = 2
   nat              = 37
   ibrav            = 0
/
&ELECTRONS
   conv_thr         = 1e-08
   mixing_mode      = 'local-TF'
/
&IONS
/
&CELL
/
&FCP
/
&RISM
/
ATOMIC_SPECIES
Pt 195.084 Pt.pbe-n-kjpaw_psl.1.0.0.UPF
H 1.008 H.pbe-kjpaw_psl.1.0.0.UPF

K_POINTS automatic
5 5 1  0 0 0

CELL_PARAMETERS angstrom
8.48528137423857 0.00000000000000 0.00000000000000
4.24264068711929 7.34846922834953 0.00000000000000
0.00000000000000 0.00000000000000 23.92820323027551

ATOMIC_POSITIONS angstrom
Pt 0.0000000000 0.0000000000 8.5000000000   0 0 0
Pt 2.8284271247 0.0000000000 8.5000000000   0 0 0
Pt 5.6568542495 0.0000000000 8.5000000000   0 0 0
Pt 1.4142135624 2.4494897428 8.5000000000   0 0 0
Pt 4.2426406871 2.4494897428 8.5000000000   0 0 0
Pt 7.0710678119 2.4494897428 8.5000000000   0 0 0
Pt 2.8284271247 4.8989794856 8.5000000000   0 0 0
Pt 5.6568542495 4.8989794856 8.5000000000   0 0 0
Pt 8.4852813742 4.8989794856 8.5000000000   0 0 0
Pt 1.4142135624 0.8164965809 10.8094010768   0 0 0
Pt 4.2426406871 0.8164965809 10.8094010768   0 0 0
Pt 7.0710678119 0.8164965809 10.8094010768   0 0 0
Pt 2.8284271247 3.2659863237 10.8094010768   0 0 0
Pt 5.6568542495 3.2659863237 10.8094010768   0 0 0
Pt 8.4852813742 3.2659863237 10.8094010768   0 0 0
Pt 4.2426406871 5.7154760665 10.8094010768   0 0 0
Pt 7.0710678119 5.7154760665 10.8094010768   0 0 0
Pt 9.8994949366 5.7154760665 10.8094010768   0 0 0
Pt 0.0090677826 1.6375661395 13.0992117180  
Pt 2.8286943259 1.6332487354 13.1120394794  
Pt 5.6597023500 1.6351017829 13.0911880590  
Pt 1.4161473933 4.0759228682 13.1021295800  
Pt 4.2458765257 4.0840502497 13.0911887596  
Pt 7.0746452291 4.0846415259 13.0907501215  
Pt 2.8297035742 6.5327839648 13.0822088536  
Pt 5.6653044543 6.5376478126 13.0992120910  
Pt 8.4804662404 6.5370824896 13.1020960194  
Pt -0.0078487039 -0.0043199081 15.4087772233  
Pt 2.8527568619 -0.0123764188 15.4892190836  
Pt 5.6746760672 0.0030442640 15.4164867187  
Pt 1.4154730510 2.4770465940 15.4892901776  
Pt 4.2880853069 2.4759236287 15.4322413927  
Pt 7.0831712780 2.4549901723 15.4200952970  
Pt 2.8397922547 4.9131928729 15.4164826184  
Pt 5.6675073732 4.9070262204 15.4200503426  
Pt 8.4964895384 4.9056908253 15.4209826680  
H 2.4747646103 1.4290447136 16.4475310024  

