&CONTROL
   tprnfor          = .true.
   pseudo_dir       = '/users/kbadger1/espresso/pseudo/pslibrary.1.0.0/pbe/PSEUDOPOTENTIALS/'
/
&SYSTEM
   ecutwfc          = 40
   ecutrho          = 410
   nosym            = .true.
   occupations      = 'smearing'
   degauss          = 0.001
   smearing         = 'marzari-vanderbilt'
   nspin            = 1
   input_dft        = 'beef-vdw'
   ntyp             = 3
   nat              = 39
   ibrav            = 0
/
&ELECTRONS
   mixing_mode      = 'local-TF'
/
&IONS
/
&CELL
/
&FCP
/
&RISM
/
ATOMIC_SPECIES
Pt 195.084 Pt.pbe-n-kjpaw_psl.1.0.0.UPF
C 12.011 C.pbe-n-kjpaw_psl.1.0.0.UPF
H 1.008 H.pbe-kjpaw_psl.1.0.0.UPF

K_POINTS automatic
5 5 1  0 0 0

CELL_PARAMETERS angstrom
8.48528137423857 0.00000000000000 0.00000000000000
4.24264068711929 7.34846922834953 0.00000000000000
0.00000000000000 0.00000000000000 23.92820323027551

ATOMIC_POSITIONS angstrom
Pt 0.0000000000 0.0000000000 8.5000000000   0 0 0
Pt 2.8284271247 0.0000000000 8.5000000000   0 0 0
Pt 5.6568542495 0.0000000000 8.5000000000   0 0 0
Pt 1.4142135624 2.4494897428 8.5000000000   0 0 0
Pt 4.2426406871 2.4494897428 8.5000000000   0 0 0
Pt 7.0710678119 2.4494897428 8.5000000000   0 0 0
Pt 2.8284271247 4.8989794856 8.5000000000   0 0 0
Pt 5.6568542495 4.8989794856 8.5000000000   0 0 0
Pt 8.4852813742 4.8989794856 8.5000000000   0 0 0
Pt 1.4142135624 0.8164965809 10.8094010768   0 0 0
Pt 4.2426406871 0.8164965809 10.8094010768   0 0 0
Pt 7.0710678119 0.8164965809 10.8094010768   0 0 0
Pt 2.8284271247 3.2659863237 10.8094010768   0 0 0
Pt 5.6568542495 3.2659863237 10.8094010768   0 0 0
Pt 8.4852813742 3.2659863237 10.8094010768   0 0 0
Pt 4.2426406871 5.7154760665 10.8094010768   0 0 0
Pt 7.0710678119 5.7154760665 10.8094010768   0 0 0
Pt 9.8994949366 5.7154760665 10.8094010768   0 0 0
Pt 0.0165734278 1.6254558984 13.1495331862  
Pt 2.8072254445 1.6249467957 13.1488576825  
Pt 5.6548973220 1.6371871820 13.0553287555  
Pt 1.4120642560 4.0615518186 13.1314530465  
Pt 4.2246061440 4.0883794640 13.1075253203  
Pt 7.0855497593 4.0885569771 13.1078086984  
Pt 2.8485918176 6.5350669471 13.1317146205  
Pt 5.6546980732 6.5392191787 13.1355003201  
Pt 8.4609208139 6.5347789274 13.1315593137  
Pt -0.0435872459 -0.0305160718 15.5865843135  
Pt 2.8636086748 -0.0322179290 15.5853618258  
Pt 5.6523914022 0.0315980385 15.3880581595  
Pt 1.4107415417 2.4126427851 15.7066993667  
Pt 4.2783585510 2.4301548727 15.3968858796  
Pt 7.0260102389 2.4301711646 15.3969329915  
Pt 2.8959424107 4.9241778038 15.5194204732  
Pt 5.6536235438 4.8507565716 15.4150258593  
Pt 8.4105832567 4.9228289001 15.5209757317  
C 1.4108569940 0.6597356451 16.7359647036  
H 1.4113458339 0.6296778907 17.8274441872  
C 1.4115460989 4.2075963238 16.4904317860  

