&CONTROL
   tprnfor          = .true.
   pseudo_dir       = '/users/kbadger1/espresso/pseudo/pslibrary.1.0.0/pbe/PSEUDOPOTENTIALS/'
/
&SYSTEM
   ecutwfc          = 40
   ecutrho          = 410
   nosym            = .true.
   occupations      = 'smearing'
   degauss          = 0.02
   smearing         = 'marzari-vanderbilt'
   nspin            = 1
   input_dft        = 'beef-vdw'
   ntyp             = 2
   nat              = 37
   ibrav            = 0
/
&ELECTRONS
   mixing_mode      = 'local-TF'
/
&IONS
/
&CELL
/
&FCP
/
&RISM
/
ATOMIC_SPECIES
Pt 195.084 Pt.pbe-n-kjpaw_psl.1.0.0.UPF
H 1.008 H.pbe-kjpaw_psl.1.0.0.UPF

K_POINTS automatic
5 5 1  0 0 0

CELL_PARAMETERS angstrom
8.48528137423857 0.00000000000000 0.00000000000000
4.24264068711929 7.34846922834953 0.00000000000000
0.00000000000000 0.00000000000000 23.92820323027551

ATOMIC_POSITIONS angstrom
Pt 0.0000000000 0.0000000000 8.5000000000   0 0 0
Pt 2.8284271247 0.0000000000 8.5000000000   0 0 0
Pt 5.6568542495 0.0000000000 8.5000000000   0 0 0
Pt 1.4142135624 2.4494897428 8.5000000000   0 0 0
Pt 4.2426406871 2.4494897428 8.5000000000   0 0 0
Pt 7.0710678119 2.4494897428 8.5000000000   0 0 0
Pt 2.8284271247 4.8989794856 8.5000000000   0 0 0
Pt 5.6568542495 4.8989794856 8.5000000000   0 0 0
Pt 8.4852813742 4.8989794856 8.5000000000   0 0 0
Pt 1.4142135624 0.8164965809 10.8094010768   0 0 0
Pt 4.2426406871 0.8164965809 10.8094010768   0 0 0
Pt 7.0710678119 0.8164965809 10.8094010768   0 0 0
Pt 2.8284271247 3.2659863237 10.8094010768   0 0 0
Pt 5.6568542495 3.2659863237 10.8094010768   0 0 0
Pt 8.4852813742 3.2659863237 10.8094010768   0 0 0
Pt 4.2426406871 5.7154760665 10.8094010768   0 0 0
Pt 7.0710678119 5.7154760665 10.8094010768   0 0 0
Pt 9.8994949366 5.7154760665 10.8094010768   0 0 0
Pt 0.0032099422 1.6332428056 13.1038532645  
Pt 2.8246407137 1.6332762460 13.1039024035  
Pt 5.6565697870 1.6338703500 13.0863467053  
Pt 1.4139191874 4.0790442909 13.0956507659  
Pt 4.2412764786 4.0852832924 13.0862760692  
Pt 7.0718954170 4.0852866457 13.0862389124  
Pt 2.8330394173 6.5369502639 13.0956223366  
Pt 5.6565346305 6.5382089267 13.1038678138  
Pt 8.4800054695 6.5369703736 13.0956262123  
Pt -0.0353548053 -0.0145589107 15.4611504008  
Pt 2.8618560234 -0.0144116047 15.4611167586  
Pt 5.6559477641 0.0065225190 15.4183938415  
Pt 1.4134251654 2.4945065409 15.4614489187  
Pt 4.2542822116 2.4619349847 15.4137895943  
Pt 7.0579187417 2.4619850101 15.4137297374  
Pt 2.8289293323 4.9033823813 15.4184981290  
Pt 5.6561557602 4.8899331730 15.4137924241  
Pt 8.4832893003 4.9035228783 15.4185393045  
H 1.4113419454 0.8249700404 16.2987909800  

