&CONTROL
   tprnfor          = .true.
   pseudo_dir       = '/users/kbadger1/espresso/pseudo/pslibrary.1.0.0/pbe/PSEUDOPOTENTIALS/'
/
&SYSTEM
   ecutwfc          = 40
   ecutrho          = 410
   nosym            = .true.
   occupations      = 'smearing'
   degauss          = 0.001
   smearing         = 'marzari-vanderbilt'
   nspin            = 1
   input_dft        = 'beef-vdw'
   ntyp             = 2
   nat              = 37
   ibrav            = 0
/
&ELECTRONS
   mixing_mode      = 'local-TF'
/
&IONS
/
&CELL
/
&FCP
/
&RISM
/
ATOMIC_SPECIES
Pt 195.084 Pt.pbe-n-kjpaw_psl.1.0.0.UPF
H 1.008 H.pbe-kjpaw_psl.1.0.0.UPF

K_POINTS automatic
5 5 1  0 0 0

CELL_PARAMETERS angstrom
8.48528137423857 0.00000000000000 0.00000000000000
4.24264068711929 7.34846922834953 0.00000000000000
0.00000000000000 0.00000000000000 23.92820323027551

ATOMIC_POSITIONS angstrom
Pt 0.0000000000 0.0000000000 8.5000000000   0 0 0
Pt 2.8284271247 0.0000000000 8.5000000000   0 0 0
Pt 5.6568542495 0.0000000000 8.5000000000   0 0 0
Pt 1.4142135624 2.4494897428 8.5000000000   0 0 0
Pt 4.2426406871 2.4494897428 8.5000000000   0 0 0
Pt 7.0710678119 2.4494897428 8.5000000000   0 0 0
Pt 2.8284271247 4.8989794856 8.5000000000   0 0 0
Pt 5.6568542495 4.8989794856 8.5000000000   0 0 0
Pt 8.4852813742 4.8989794856 8.5000000000   0 0 0
Pt 1.4142135624 0.8164965809 10.8094010768   0 0 0
Pt 4.2426406871 0.8164965809 10.8094010768   0 0 0
Pt 7.0710678119 0.8164965809 10.8094010768   0 0 0
Pt 2.8284271247 3.2659863237 10.8094010768   0 0 0
Pt 5.6568542495 3.2659863237 10.8094010768   0 0 0
Pt 8.4852813742 3.2659863237 10.8094010768   0 0 0
Pt 4.2426406871 5.7154760665 10.8094010768   0 0 0
Pt 7.0710678119 5.7154760665 10.8094010768   0 0 0
Pt 9.8994949366 5.7154760665 10.8094010768   0 0 0
Pt 0.0025289885 1.6344914982 13.1206867633  
Pt 2.8247665988 1.6344452832 13.1206520716  
Pt 5.6563299608 1.6341073370 13.0961797700  
Pt 1.4136470453 4.0798011229 13.1083845914  
Pt 4.2406078052 4.0864975730 13.0962222193  
Pt 7.0720906750 4.0865402912 13.0962553743  
Pt 2.8329782993 6.5380733883 13.1084073359  
Pt 5.6562820293 6.5386057035 13.1204380049  
Pt 8.4796235133 6.5380054095 13.1084475891  
Pt -0.0370810265 -0.0154546089 15.4832424769  
Pt 2.8636549903 -0.0155070810 15.4832266113  
Pt 5.6559175988 0.0069411654 15.4392137806  
Pt 1.4132495767 2.4967711098 15.4836116269  
Pt 4.2559243249 2.4632535649 15.4306913246  
Pt 7.0559145899 2.4632512185 15.4306528640  
Pt 2.8287454760 4.9037090834 15.4388641912  
Pt 5.6559229834 4.8881616600 15.4307789748  
Pt 8.4830451373 4.9036739614 15.4390462280  
H 1.4133295384 0.8212856071 16.3179811054  

