&CONTROL
   tprnfor          = .true.
   pseudo_dir       = '/users/kbadger1/espresso/pseudo/pslibrary.1.0.0/pbe/PSEUDOPOTENTIALS/'
/
&SYSTEM
   ecutwfc          = 40
   ecutrho          = 410
   nosym            = .true.
   occupations      = 'smearing'
   degauss          = 0.02
   smearing         = 'marzari-vanderbilt'
   nspin            = 1
   input_dft        = 'beef-vdw'
   ntyp             = 2
   nat              = 37
   ibrav            = 0
/
&ELECTRONS
   mixing_mode      = 'local-TF'
/
&IONS
/
&CELL
/
&FCP
/
&RISM
/
ATOMIC_SPECIES
Pt 195.084 Pt.pbe-n-kjpaw_psl.1.0.0.UPF
H 1.008 H.pbe-kjpaw_psl.1.0.0.UPF

K_POINTS automatic
5 5 1  0 0 0

CELL_PARAMETERS angstrom
8.46831000000000 0.00000000000000 0.00000000000000
4.23415500000000 7.33377158712180 0.00000000000000
0.00000000000000 0.00000000000000 24.96566199000000

ATOMIC_POSITIONS angstrom
Pt 0.0000000000 0.0000000000 8.5000000000   0 0 0
Pt 2.8284271247 0.0000000000 8.5000000000   0 0 0
Pt 5.6568542495 0.0000000000 8.5000000000   0 0 0
Pt 1.4142135624 2.4494897428 8.5000000000   0 0 0
Pt 4.2426406871 2.4494897428 8.5000000000   0 0 0
Pt 7.0710678119 2.4494897428 8.5000000000   0 0 0
Pt 2.8284271247 4.8989794856 8.5000000000   0 0 0
Pt 5.6568542495 4.8989794856 8.5000000000   0 0 0
Pt 8.4852813742 4.8989794856 8.5000000000   0 0 0
Pt 1.4142135624 0.8164965809 10.8094010768   0 0 0
Pt 4.2426406871 0.8164965809 10.8094010768   0 0 0
Pt 7.0710678119 0.8164965809 10.8094010768   0 0 0
Pt 2.8284271247 3.2659863237 10.8094010768   0 0 0
Pt 5.6568542495 3.2659863237 10.8094010768   0 0 0
Pt 8.4852813742 3.2659863237 10.8094010768   0 0 0
Pt 4.2426406871 5.7154760665 10.8094010768   0 0 0
Pt 7.0710678119 5.7154760665 10.8094010768   0 0 0
Pt 9.8994949366 5.7154760665 10.8094010768   0 0 0
Pt 0.0155657559 1.6355646600 13.1122309322  
Pt 2.8311238049 1.6344987587 13.1095943199  
Pt 5.6577203438 1.6350369150 13.0907063797  
Pt 1.4242476355 4.0773591095 13.1033832144  
Pt 4.2448706496 4.0822400713 13.0907005320  
Pt 7.0710657363 4.0825299142 13.0898141166  
Pt 2.8409151717 6.5293876769 13.1068112272  
Pt 5.6584131842 6.5294479323 13.1121909108  
Pt 8.4773380933 6.5285489250 13.1033930838  
Pt -0.0209740318 -0.0121274085 15.4734677409  
Pt 2.8711269064 -0.0119311150 15.4716121052  
Pt 5.6587123495 0.0094037729 15.4319531889  
Pt 1.4252396313 2.4924179083 15.4716298046  
Pt 4.2605501855 2.4598200081 15.4230999826  
Pt 7.0573843348 2.4601197677 15.4236574745  
Pt 2.8374844908 4.8958835766 15.4319364605  
Pt 5.6591889569 4.8818529782 15.4236110381  
Pt 8.4804210915 4.8961894355 15.4308101640  
H 1.4251933193 0.8228395744 16.3131477488  

