&CONTROL
   tprnfor          = .true.
   pseudo_dir       = '/users/kbadger1/espresso/pseudo/pslibrary.1.0.0/pbe/PSEUDOPOTENTIALS/'
/
&SYSTEM
   ecutwfc          = 40
   ecutrho          = 410
   nosym            = .true.
   occupations      = 'smearing'
   degauss          = 0.02
   smearing         = 'marzari-vanderbilt'
   nspin            = 1
   input_dft        = 'beef-vdw'
   ntyp             = 2
   nat              = 37
   ibrav            = 0
/
&ELECTRONS
   mixing_mode      = 'local-TF'
/
&IONS
/
&CELL
/
&FCP
/
&RISM
/
ATOMIC_SPECIES
Pt 195.084 Pt.pbe-n-kjpaw_psl.1.0.0.UPF
H 1.008 H.pbe-kjpaw_psl.1.0.0.UPF

K_POINTS automatic
5 5 1  0 0 0

CELL_PARAMETERS angstrom
8.46831000000000 0.00000000000000 0.00000000000000
4.23415500000000 7.33377158712180 0.00000000000000
0.00000000000000 0.00000000000000 24.96566199000000

ATOMIC_POSITIONS angstrom
Pt 0.0000000000 0.0000000000 8.5000000000   0 0 0
Pt 2.8284271247 0.0000000000 8.5000000000   0 0 0
Pt 5.6568542495 0.0000000000 8.5000000000   0 0 0
Pt 1.4142135624 2.4494897428 8.5000000000   0 0 0
Pt 4.2426406871 2.4494897428 8.5000000000   0 0 0
Pt 7.0710678119 2.4494897428 8.5000000000   0 0 0
Pt 2.8284271247 4.8989794856 8.5000000000   0 0 0
Pt 5.6568542495 4.8989794856 8.5000000000   0 0 0
Pt 8.4852813742 4.8989794856 8.5000000000   0 0 0
Pt 1.4142135624 0.8164965809 10.8094010768   0 0 0
Pt 4.2426406871 0.8164965809 10.8094010768   0 0 0
Pt 7.0710678119 0.8164965809 10.8094010768   0 0 0
Pt 2.8284271247 3.2659863237 10.8094010768   0 0 0
Pt 5.6568542495 3.2659863237 10.8094010768   0 0 0
Pt 8.4852813742 3.2659863237 10.8094010768   0 0 0
Pt 4.2426406871 5.7154760665 10.8094010768   0 0 0
Pt 7.0710678119 5.7154760665 10.8094010768   0 0 0
Pt 9.8994949366 5.7154760665 10.8094010768   0 0 0
Pt 0.0175214680 1.6343588233 13.1159980545  
Pt 2.8300986286 1.6333401687 13.1129651237  
Pt 5.6581641233 1.6333488882 13.0908650187  
Pt 1.4246496204 4.0710194187 13.1117502066  
Pt 4.2457273151 4.0803166778 13.0925175502  
Pt 7.0709527539 4.0806102069 13.0917346733  
Pt 2.8429733938 6.5280708191 13.1101604572  
Pt 5.6587800964 6.5287493532 13.1142018119  
Pt 8.4764647064 6.5270630477 13.1061599661  
Pt -0.0069395685 -0.0028835360 15.4830878885  
Pt 2.8596078708 -0.0030752889 15.4793214576  
Pt 5.6595552078 0.0104775706 15.4328725798  
Pt 1.4263962409 2.4951744690 15.4956687975  
Pt 4.2620958166 2.4588247628 15.4239589323  
Pt 7.0571258974 2.4593457997 15.4243106028  
Pt 2.8418043241 4.9017829736 15.4315555378  
Pt 5.6600023121 4.8888300238 15.4269305106  
Pt 8.4780422574 4.9020498504 15.4303703783  
H 1.4173132197 1.0113419419 16.4261474054  

