&CONTROL
   tprnfor          = .true.
   pseudo_dir       = '/users/kbadger1/espresso/pseudo/pslibrary.1.0.0/pbe/PSEUDOPOTENTIALS/'
/
&SYSTEM
   ecutwfc          = 40
   ecutrho          = 410
   nosym            = .true.
   occupations      = 'smearing'
   degauss          = 0.001
   smearing         = 'marzari-vanderbilt'
   nspin            = 1
   input_dft        = 'beef-vdw'
   ntyp             = 3
   nat              = 38
   ibrav            = 0
/
&ELECTRONS
   conv_thr         = 1e-08
   mixing_mode      = 'local-TF'
/
&IONS
/
&CELL
/
&FCP
/
&RISM
/
ATOMIC_SPECIES
Pt 195.084 Pt.pbe-n-kjpaw_psl.1.0.0.UPF
C 12.011 C.pbe-n-kjpaw_psl.1.0.0.UPF
H 1.008 H.pbe-kjpaw_psl.1.0.0.UPF

K_POINTS automatic
5 5 1  0 0 0

CELL_PARAMETERS angstrom
8.48528137423857 0.00000000000000 0.00000000000000
4.24264068711929 7.34846922834953 0.00000000000000
0.00000000000000 0.00000000000000 23.92820323027551

ATOMIC_POSITIONS angstrom
Pt 0.0000000000 0.0000000000 8.5000000000   0 0 0
Pt 2.8284271247 0.0000000000 8.5000000000   0 0 0
Pt 5.6568542495 0.0000000000 8.5000000000   0 0 0
Pt 1.4142135624 2.4494897428 8.5000000000   0 0 0
Pt 4.2426406871 2.4494897428 8.5000000000   0 0 0
Pt 7.0710678119 2.4494897428 8.5000000000   0 0 0
Pt 2.8284271247 4.8989794856 8.5000000000   0 0 0
Pt 5.6568542495 4.8989794856 8.5000000000   0 0 0
Pt 8.4852813742 4.8989794856 8.5000000000   0 0 0
Pt 1.4142135624 0.8164965809 10.8094010768   0 0 0
Pt 4.2426406871 0.8164965809 10.8094010768   0 0 0
Pt 7.0710678119 0.8164965809 10.8094010768   0 0 0
Pt 2.8284271247 3.2659863237 10.8094010768   0 0 0
Pt 5.6568542495 3.2659863237 10.8094010768   0 0 0
Pt 8.4852813742 3.2659863237 10.8094010768   0 0 0
Pt 4.2426406871 5.7154760665 10.8094010768   0 0 0
Pt 7.0710678119 5.7154760665 10.8094010768   0 0 0
Pt 9.8994949366 5.7154760665 10.8094010768   0 0 0
Pt 0.0050023839 1.6792961542 13.1254704915  
Pt 2.8234110807 1.6792920719 13.1254740774  
Pt 5.6568562195 1.6783691702 13.0931653995  
Pt 1.4142107207 4.1375775892 13.1005046327  
Pt 4.2416570953 4.1332364616 13.0935453012  
Pt 7.0720405235 4.1332301734 13.0935436665  
Pt 2.8441135451 6.5942270422 13.1213239926  
Pt 5.6568517323 6.5905835256 13.1379379906  
Pt 8.4695935731 6.5942229457 13.1213272171  
Pt -0.0334553748 0.0887032981 15.5833247803  
Pt 2.8618733538 0.0886982414 15.5833341936  
Pt 5.6568544189 0.1047912606 15.4391308375  
Pt 1.4142096551 2.6418578626 15.5081182927  
Pt 4.2711176043 2.5645099036 15.4181871244  
Pt 7.0425772306 2.5645157092 15.4181769745  
Pt 2.8379596117 5.0114753950 15.4333564311  
Pt 5.6568544473 4.9693413304 15.4232288855  
Pt 8.4757321117 5.0114678216 15.4333544122  
C 1.4142131378 0.9988886955 16.6173772372  
H 1.4142211947 1.1479978040 17.6990981641  

