&CONTROL
   tprnfor          = .true.
   pseudo_dir       = '/users/kbadger1/espresso/pseudo/pslibrary.1.0.0/pbe/PSEUDOPOTENTIALS/'
/
&SYSTEM
   ecutwfc          = 40
   ecutrho          = 410
   nosym            = .true.
   occupations      = 'smearing'
   degauss          = 0.02
   smearing         = 'marzari-vanderbilt'
   nspin            = 1
   input_dft        = 'beef-vdw'
   ntyp             = 2
   nat              = 37
   ibrav            = 0
/
&ELECTRONS
   mixing_mode      = 'local-TF'
/
&IONS
/
&CELL
/
&FCP
/
&RISM
/
ATOMIC_SPECIES
Pt 195.084 Pt.pbe-n-kjpaw_psl.1.0.0.UPF
H 1.008 H.pbe-kjpaw_psl.1.0.0.UPF

K_POINTS automatic
5 5 1  0 0 0

CELL_PARAMETERS angstrom
8.46831000000000 0.00000000000000 0.00000000000000
4.23415500000000 7.33377158712180 0.00000000000000
0.00000000000000 0.00000000000000 24.96566199000000

ATOMIC_POSITIONS angstrom
Pt 0.0000000000 0.0000000000 8.5000000000   0 0 0
Pt 2.8284271247 0.0000000000 8.5000000000   0 0 0
Pt 5.6568542495 0.0000000000 8.5000000000   0 0 0
Pt 1.4142135624 2.4494897428 8.5000000000   0 0 0
Pt 4.2426406871 2.4494897428 8.5000000000   0 0 0
Pt 7.0710678119 2.4494897428 8.5000000000   0 0 0
Pt 2.8284271247 4.8989794856 8.5000000000   0 0 0
Pt 5.6568542495 4.8989794856 8.5000000000   0 0 0
Pt 8.4852813742 4.8989794856 8.5000000000   0 0 0
Pt 1.4142135624 0.8164965809 10.8094010768   0 0 0
Pt 4.2426406871 0.8164965809 10.8094010768   0 0 0
Pt 7.0710678119 0.8164965809 10.8094010768   0 0 0
Pt 2.8284271247 3.2659863237 10.8094010768   0 0 0
Pt 5.6568542495 3.2659863237 10.8094010768   0 0 0
Pt 8.4852813742 3.2659863237 10.8094010768   0 0 0
Pt 4.2426406871 5.7154760665 10.8094010768   0 0 0
Pt 7.0710678119 5.7154760665 10.8094010768   0 0 0
Pt 9.8994949366 5.7154760665 10.8094010768   0 0 0
Pt 0.0177214978 1.6360166305 13.1146345788  
Pt 2.8296099612 1.6349409684 13.1116689682  
Pt 5.6582193390 1.6345515488 13.0900421969  
Pt 1.4244823604 4.0725427325 13.1115328058  
Pt 4.2454437484 4.0810181714 13.0912501370  
Pt 7.0712171820 4.0812090204 13.0904948099  
Pt 2.8431078179 6.5290943439 13.1084962151  
Pt 5.6587037201 6.5292913063 13.1118582802  
Pt 8.4761676944 6.5279706488 13.1046778226  
Pt -0.0070886322 -0.0011376275 15.4798312584  
Pt 2.8593251995 -0.0012442727 15.4766595439  
Pt 5.6595161523 0.0119174703 15.4307857892  
Pt 1.4261804692 2.4969610267 15.4960410615  
Pt 4.2617294879 2.4605650395 15.4235227771  
Pt 7.0575313243 2.4609514539 15.4239514871  
Pt 2.8416963765 4.9034115659 15.4309693111  
Pt 5.6599440227 4.8899923670 15.4245615309  
Pt 8.4778863673 4.9035992104 15.4298641136  
H 1.4200573147 1.0099760718 16.4241917546  

