&CONTROL
   tprnfor          = .true.
   pseudo_dir       = '/users/kbadger1/espresso/pseudo/pslibrary.1.0.0/pbe/PSEUDOPOTENTIALS/'
/
&SYSTEM
   ecutwfc          = 40
   ecutrho          = 410
   nosym            = .true.
   occupations      = 'smearing'
   degauss          = 0.02
   smearing         = 'marzari-vanderbilt'
   nspin            = 1
   input_dft        = 'beef-vdw'
   ntyp             = 2
   nat              = 37
   ibrav            = 0
/
&ELECTRONS
   mixing_mode      = 'local-TF'
/
&IONS
/
&CELL
/
&FCP
/
&RISM
/
ATOMIC_SPECIES
Pt 195.084 Pt.pbe-n-kjpaw_psl.1.0.0.UPF
H 1.008 H.pbe-kjpaw_psl.1.0.0.UPF

K_POINTS automatic
5 5 1  0 0 0

CELL_PARAMETERS angstrom
8.48528137423857 0.00000000000000 0.00000000000000
4.24264068711929 7.34846922834953 0.00000000000000
0.00000000000000 0.00000000000000 23.92820323027551

ATOMIC_POSITIONS angstrom
Pt 0.0000000000 0.0000000000 8.5000000000   0 0 0
Pt 2.8284271247 0.0000000000 8.5000000000   0 0 0
Pt 5.6568542495 0.0000000000 8.5000000000   0 0 0
Pt 1.4142135624 2.4494897428 8.5000000000   0 0 0
Pt 4.2426406871 2.4494897428 8.5000000000   0 0 0
Pt 7.0710678119 2.4494897428 8.5000000000   0 0 0
Pt 2.8284271247 4.8989794856 8.5000000000   0 0 0
Pt 5.6568542495 4.8989794856 8.5000000000   0 0 0
Pt 8.4852813742 4.8989794856 8.5000000000   0 0 0
Pt 1.4142135624 0.8164965809 10.8094010768   0 0 0
Pt 4.2426406871 0.8164965809 10.8094010768   0 0 0
Pt 7.0710678119 0.8164965809 10.8094010768   0 0 0
Pt 2.8284271247 3.2659863237 10.8094010768   0 0 0
Pt 5.6568542495 3.2659863237 10.8094010768   0 0 0
Pt 8.4852813742 3.2659863237 10.8094010768   0 0 0
Pt 4.2426406871 5.7154760665 10.8094010768   0 0 0
Pt 7.0710678119 5.7154760665 10.8094010768   0 0 0
Pt 9.8994949366 5.7154760665 10.8094010768   0 0 0
Pt 0.0054681506 1.6287891106 13.1080737624  
Pt 2.8241138141 1.6289462097 13.1072929425  
Pt 5.6574332560 1.6285239943 13.0866211218  
Pt 1.4149343063 4.0691278024 13.1047022021  
Pt 4.2424432063 4.0801630803 13.0878334106  
Pt 7.0724612908 4.0801916021 13.0876149731  
Pt 2.8359196335 6.5323379553 13.0999852481  
Pt 5.6571746728 6.5336382668 13.1052590261  
Pt 8.4803933907 6.5315732502 13.0982770259  
Pt -0.0193220357 -0.0134981079 15.4710090399  
Pt 2.8527076055 -0.0149825674 15.4643034961  
Pt 5.6584145909 -0.0017041793 15.4209008994  
Pt 1.4160503067 2.4896916468 15.4852628986  
Pt 4.2572943464 2.4524867260 15.4146037003  
Pt 7.0578858244 2.4533029076 15.4141748492  
Pt 2.8341155354 4.9013497106 15.4196849072  
Pt 5.6582426648 4.8876148604 15.4162762903  
Pt 8.4825619344 4.9008922369 15.4197108290  
H 1.3859039850 1.0052834694 16.4122671936  

