&CONTROL
   tprnfor          = .true.
   pseudo_dir       = '/users/kbadger1/espresso/pseudo/pslibrary.1.0.0/pbe/PSEUDOPOTENTIALS/'
/
&SYSTEM
   ecutwfc          = 40
   ecutrho          = 410
   nosym            = .true.
   occupations      = 'smearing'
   degauss          = 0.001
   smearing         = 'marzari-vanderbilt'
   nspin            = 1
   input_dft        = 'beef-vdw'
   ntyp             = 3
   nat              = 38
   ibrav            = 0
/
&ELECTRONS
   mixing_mode      = 'local-TF'
/
&IONS
/
&CELL
/
&FCP
/
&RISM
/
ATOMIC_SPECIES
Pt 195.084 Pt.pbe-n-kjpaw_psl.1.0.0.UPF
C 12.011 C.pbe-n-kjpaw_psl.1.0.0.UPF
H 1.008 H.pbe-kjpaw_psl.1.0.0.UPF

K_POINTS automatic
5 5 1  0 0 0

CELL_PARAMETERS angstrom
8.48528137423857 0.00000000000000 0.00000000000000
4.24264068711929 7.34846922834953 0.00000000000000
0.00000000000000 0.00000000000000 23.92820323027551

ATOMIC_POSITIONS angstrom
Pt 0.0000000000 0.0000000000 8.5000000000   0 0 0
Pt 2.8284271247 0.0000000000 8.5000000000   0 0 0
Pt 5.6568542495 0.0000000000 8.5000000000   0 0 0
Pt 1.4142135624 2.4494897428 8.5000000000   0 0 0
Pt 4.2426406871 2.4494897428 8.5000000000   0 0 0
Pt 7.0710678119 2.4494897428 8.5000000000   0 0 0
Pt 2.8284271247 4.8989794856 8.5000000000   0 0 0
Pt 5.6568542495 4.8989794856 8.5000000000   0 0 0
Pt 8.4852813742 4.8989794856 8.5000000000   0 0 0
Pt 1.4142135624 0.8164965809 10.8094010768   0 0 0
Pt 4.2426406871 0.8164965809 10.8094010768   0 0 0
Pt 7.0710678119 0.8164965809 10.8094010768   0 0 0
Pt 2.8284271247 3.2659863237 10.8094010768   0 0 0
Pt 5.6568542495 3.2659863237 10.8094010768   0 0 0
Pt 8.4852813742 3.2659863237 10.8094010768   0 0 0
Pt 4.2426406871 5.7154760665 10.8094010768   0 0 0
Pt 7.0710678119 5.7154760665 10.8094010768   0 0 0
Pt 9.8994949366 5.7154760665 10.8094010768   0 0 0
Pt 0.0262762191 1.6300189218 13.1697333387  
Pt 2.8021732003 1.6300508581 13.1697066228  
Pt 5.6568599657 1.6418136398 13.0865654087  
Pt 1.4142431824 4.0478659317 13.1279879865  
Pt 4.2383751252 4.0778943743 13.0746235236  
Pt 7.0753209021 4.0778807638 13.0747458252  
Pt 2.8402131194 6.5458761289 13.1097522701  
Pt 5.6568300278 6.5413388875 13.1293979901  
Pt 8.4735602640 6.5458330301 13.1098161459  
Pt -0.1281568755 -0.0840138912 15.5550034202  
Pt 2.9565709986 -0.0840111645 15.5549528113  
Pt 5.6568792415 0.0059165287 15.4215306875  
Pt 1.4142743590 2.6138719468 15.8094443168  
Pt 4.2600490373 2.4597632552 15.4035135185  
Pt 7.0536576204 2.4597348082 15.4036188263  
Pt 2.8347891550 4.8999986543 15.3954897167  
Pt 5.6568533532 4.8594811311 15.3840400543  
Pt 8.4790408584 4.9000190678 15.3956977346  
C 1.4142112648 0.7316301910 16.2479450123  
H 1.4144369173 2.9379118141 17.3348766793  

