&CONTROL
   tprnfor          = .true.
   pseudo_dir       = '/users/kbadger1/espresso/pseudo/pslibrary.1.0.0/pbe/PSEUDOPOTENTIALS/'
/
&SYSTEM
   ecutwfc          = 40
   ecutrho          = 410
   nosym            = .true.
   occupations      = 'smearing'
   degauss          = 0.02
   smearing         = 'marzari-vanderbilt'
   nspin            = 1
   input_dft        = 'beef-vdw'
   ntyp             = 3
   nat              = 38
   ibrav            = 0
/
&ELECTRONS
   mixing_mode      = 'local-TF'
/
&IONS
/
&CELL
/
&FCP
/
&RISM
/
ATOMIC_SPECIES
Pt 195.084 Pt.pbe-n-kjpaw_psl.1.0.0.UPF
C 12.011 C.pbe-n-kjpaw_psl.1.0.0.UPF
H 1.008 H.pbe-kjpaw_psl.1.0.0.UPF

K_POINTS automatic
5 5 1  0 0 0

CELL_PARAMETERS angstrom
8.48528137423857 0.00000000000000 0.00000000000000
4.24264068711929 7.34846922834953 0.00000000000000
0.00000000000000 0.00000000000000 23.92820323027551

ATOMIC_POSITIONS angstrom
Pt 0.0000000000 0.0000000000 8.5000000000   0 0 0
Pt 2.8284271247 0.0000000000 8.5000000000   0 0 0
Pt 5.6568542495 0.0000000000 8.5000000000   0 0 0
Pt 1.4142135624 2.4494897428 8.5000000000   0 0 0
Pt 4.2426406871 2.4494897428 8.5000000000   0 0 0
Pt 7.0710678119 2.4494897428 8.5000000000   0 0 0
Pt 2.8284271247 4.8989794856 8.5000000000   0 0 0
Pt 5.6568542495 4.8989794856 8.5000000000   0 0 0
Pt 8.4852813742 4.8989794856 8.5000000000   0 0 0
Pt 1.4142135624 0.8164965809 10.8094010768   0 0 0
Pt 4.2426406871 0.8164965809 10.8094010768   0 0 0
Pt 7.0710678119 0.8164965809 10.8094010768   0 0 0
Pt 2.8284271247 3.2659863237 10.8094010768   0 0 0
Pt 5.6568542495 3.2659863237 10.8094010768   0 0 0
Pt 8.4852813742 3.2659863237 10.8094010768   0 0 0
Pt 4.2426406871 5.7154760665 10.8094010768   0 0 0
Pt 7.0710678119 5.7154760665 10.8094010768   0 0 0
Pt 9.8994949366 5.7154760665 10.8094010768   0 0 0
Pt 0.0219159862 1.6277272372 13.1545029999  
Pt 2.8042800794 1.6277289301 13.1540277715  
Pt 5.6557473361 1.6352750901 13.0833161986  
Pt 1.4131557914 4.0444851246 13.1193347502  
Pt 4.2386716866 4.0733943232 13.0743978753  
Pt 7.0728309921 4.0734023328 13.0745530688  
Pt 2.8386862462 6.5379248972 13.0985597679  
Pt 5.6557135368 6.5364785141 13.1170089506  
Pt 8.4729498451 6.5379656060 13.0983806482  
Pt -0.1282664085 -0.0896478169 15.5313248623  
Pt 2.9523728042 -0.0895348468 15.5303825037  
Pt 5.6547332675 -0.0049526330 15.4062392088  
Pt 1.4118450685 2.6108166253 15.7922435648  
Pt 4.2564925796 2.4513001946 15.4057723775  
Pt 7.0527450607 2.4513080427 15.4059677441  
Pt 2.8309155800 4.8954578996 15.3839917248  
Pt 5.6545971152 4.8489699886 15.3870897764  
Pt 8.4783660714 4.8955486063 15.3839650917  
C 1.4122688963 0.7288946054 16.2311803418  
H 1.4107137820 2.9364610100 17.3174504956  

