&CONTROL
   tprnfor          = .true.
   pseudo_dir       = '/users/kbadger1/espresso/pseudo/pslibrary.1.0.0/pbe/PSEUDOPOTENTIALS/'
/
&SYSTEM
   ecutwfc          = 40
   ecutrho          = 410
   nosym            = .true.
   occupations      = 'smearing'
   degauss          = 0.02
   smearing         = 'marzari-vanderbilt'
   nspin            = 1
   input_dft        = 'beef-vdw'
   ntyp             = 3
   nat              = 38
   ibrav            = 0
/
&ELECTRONS
   mixing_mode      = 'local-TF'
/
&IONS
/
&CELL
/
&FCP
/
&RISM
/
ATOMIC_SPECIES
Pt 195.084 Pt.pbe-n-kjpaw_psl.1.0.0.UPF
H 1.008 H.pbe-kjpaw_psl.1.0.0.UPF
C 12.011 C.pbe-n-kjpaw_psl.1.0.0.UPF

K_POINTS automatic
5 5 1  0 0 0

CELL_PARAMETERS angstrom
8.46831000000000 0.00000000000000 0.00000000000000
4.23415500000000 7.33377158712180 0.00000000000000
0.00000000000000 0.00000000000000 24.96566199000000

ATOMIC_POSITIONS angstrom
Pt 0.0000000000 0.0000000000 8.5000000000   0 0 0
Pt 2.8284271247 0.0000000000 8.5000000000   0 0 0
Pt 5.6568542495 0.0000000000 8.5000000000   0 0 0
Pt 1.4142135624 2.4494897428 8.5000000000   0 0 0
Pt 4.2426406871 2.4494897428 8.5000000000   0 0 0
Pt 7.0710678119 2.4494897428 8.5000000000   0 0 0
Pt 2.8284271247 4.8989794856 8.5000000000   0 0 0
Pt 5.6568542495 4.8989794856 8.5000000000   0 0 0
Pt 8.4852813742 4.8989794856 8.5000000000   0 0 0
Pt 1.4142135624 0.8164965809 10.8094010768   0 0 0
Pt 4.2426406871 0.8164965809 10.8094010768   0 0 0
Pt 7.0710678119 0.8164965809 10.8094010768   0 0 0
Pt 2.8284271247 3.2659863237 10.8094010768   0 0 0
Pt 5.6568542495 3.2659863237 10.8094010768   0 0 0
Pt 8.4852813742 3.2659863237 10.8094010768   0 0 0
Pt 4.2426406871 5.7154760665 10.8094010768   0 0 0
Pt 7.0710678119 5.7154760665 10.8094010768   0 0 0
Pt 9.8994949366 5.7154760665 10.8094010768   0 0 0
Pt 0.0336146823 1.6315604845 13.1627116319  
Pt 2.8112771184 1.6309011542 13.1590269350  
Pt 5.6567897622 1.6378461504 13.0867097208  
Pt 1.4227861446 4.0450906235 13.1254428321  
Pt 4.2419124139 4.0720841074 13.0778590578  
Pt 7.0715638690 4.0721733004 13.0775248004  
Pt 2.8463466072 6.5321265915 13.1098065626  
Pt 5.6569742018 6.5292154032 13.1235009653  
Pt 8.4695256931 6.5310459666 13.1065055745  
Pt -0.1153207693 -0.0836333653 15.5451920760  
Pt 2.9577588951 -0.0823975187 15.5412112815  
Pt 5.6554812072 0.0029164675 15.4194028023  
Pt 1.4214404690 2.6065796834 15.8021795003  
Pt 4.2613755234 2.4534199187 15.4149901738  
Pt 7.0505729300 2.4536067020 15.4162419064  
Pt 2.8376285182 4.8899232800 15.3963728143  
Pt 5.6561389028 4.8462272160 15.3964035048  
Pt 8.4740159787 4.8907190232 15.3958885084  
H 1.4224576309 2.9467218569 17.3235132970  
C 1.4215530923 0.7275642225 16.2597728910  

