&CONTROL
   tprnfor          = .true.
   pseudo_dir       = '/users/kbadger1/espresso/pseudo/pslibrary.1.0.0/pbe/PSEUDOPOTENTIALS/'
/
&SYSTEM
   ecutwfc          = 40
   ecutrho          = 410
   nosym            = .true.
   occupations      = 'smearing'
   degauss          = 0.001
   smearing         = 'marzari-vanderbilt'
   nspin            = 1
   input_dft        = 'beef-vdw'
   ntyp             = 3
   nat              = 39
   ibrav            = 0
/
&ELECTRONS
   mixing_mode      = 'local-TF'
/
&IONS
/
&CELL
/
&FCP
/
&RISM
/
ATOMIC_SPECIES
Pt 195.084 Pt.pbe-n-kjpaw_psl.1.0.0.UPF
C 12.011 C.pbe-n-kjpaw_psl.1.0.0.UPF
H 1.008 H.pbe-kjpaw_psl.1.0.0.UPF

K_POINTS automatic
5 5 1  0 0 0

CELL_PARAMETERS angstrom
8.48528137423857 0.00000000000000 0.00000000000000
4.24264068711929 7.34846922834953 0.00000000000000
0.00000000000000 0.00000000000000 23.92820323027551

ATOMIC_POSITIONS angstrom
Pt 0.0000000000 0.0000000000 8.5000000000   0 0 0
Pt 2.8284271247 0.0000000000 8.5000000000   0 0 0
Pt 5.6568542495 0.0000000000 8.5000000000   0 0 0
Pt 1.4142135624 2.4494897428 8.5000000000   0 0 0
Pt 4.2426406871 2.4494897428 8.5000000000   0 0 0
Pt 7.0710678119 2.4494897428 8.5000000000   0 0 0
Pt 2.8284271247 4.8989794856 8.5000000000   0 0 0
Pt 5.6568542495 4.8989794856 8.5000000000   0 0 0
Pt 8.4852813742 4.8989794856 8.5000000000   0 0 0
Pt 1.4142135624 0.8164965809 10.8094010768   0 0 0
Pt 4.2426406871 0.8164965809 10.8094010768   0 0 0
Pt 7.0710678119 0.8164965809 10.8094010768   0 0 0
Pt 2.8284271247 3.2659863237 10.8094010768   0 0 0
Pt 5.6568542495 3.2659863237 10.8094010768   0 0 0
Pt 8.4852813742 3.2659863237 10.8094010768   0 0 0
Pt 4.2426406871 5.7154760665 10.8094010768   0 0 0
Pt 7.0710678119 5.7154760665 10.8094010768   0 0 0
Pt 9.8994949366 5.7154760665 10.8094010768   0 0 0
Pt 0.0325153577 1.6211307428 13.1704863108  
Pt 2.7955459499 1.6211785514 13.1704295689  
Pt 5.6567639704 1.6411191553 13.0486315908  
Pt 1.4140300293 4.0524810141 13.1452418569  
Pt 4.2198601694 4.0849004615 13.1051953430  
Pt 7.0935555171 4.0849069875 13.1051960380  
Pt 2.8453334942 6.5274001718 13.1272754134  
Pt 5.6566849977 6.5381888079 13.1286683590  
Pt 8.4680880843 6.5274336869 13.1271649088  
Pt -0.1227349609 -0.0925720029 15.5485274338  
Pt 2.9505058411 -0.0923448336 15.5483560378  
Pt 5.6565514787 0.0390832647 15.3776341093  
Pt 1.4135785353 2.4670437529 15.8712401850  
Pt 4.2831105390 2.4262006206 15.3914804291  
Pt 7.0300750144 2.4262104991 15.3914598248  
Pt 2.8791838630 4.8792018549 15.5344654051  
Pt 5.6565972097 4.8343436237 15.3864368343  
Pt 8.4339655873 4.8795051052 15.5343800792  
C 1.4139186742 0.5477964494 16.4091741424  
H 1.4122951778 2.8102380442 17.4163554415  
C 1.4138556366 4.4889052286 16.6883901752  

