&CONTROL
   tprnfor          = .true.
   pseudo_dir       = '/users/kbadger1/espresso/pseudo/pslibrary.1.0.0/pbe/PSEUDOPOTENTIALS/'
/
&SYSTEM
   ecutwfc          = 40
   ecutrho          = 410
   nosym            = .true.
   occupations      = 'smearing'
   degauss          = 0.02
   smearing         = 'marzari-vanderbilt'
   nspin            = 1
   input_dft        = 'beef-vdw'
   ntyp             = 2
   nat              = 37
   ibrav            = 0
/
&ELECTRONS
   mixing_mode      = 'local-TF'
/
&IONS
/
&CELL
/
&FCP
/
&RISM
/
ATOMIC_SPECIES
Pt 195.084 Pt.pbe-n-kjpaw_psl.1.0.0.UPF
H 1.008 H.pbe-kjpaw_psl.1.0.0.UPF

K_POINTS automatic
5 5 1  0 0 0

CELL_PARAMETERS angstrom
8.48528137423857 0.00000000000000 0.00000000000000
4.24264068711929 7.34846922834953 0.00000000000000
0.00000000000000 0.00000000000000 23.92820323027551

ATOMIC_POSITIONS angstrom
Pt 0.0000000000 0.0000000000 8.5000000000   0 0 0
Pt 2.8284271247 0.0000000000 8.5000000000   0 0 0
Pt 5.6568542495 0.0000000000 8.5000000000   0 0 0
Pt 1.4142135624 2.4494897428 8.5000000000   0 0 0
Pt 4.2426406871 2.4494897428 8.5000000000   0 0 0
Pt 7.0710678119 2.4494897428 8.5000000000   0 0 0
Pt 2.8284271247 4.8989794856 8.5000000000   0 0 0
Pt 5.6568542495 4.8989794856 8.5000000000   0 0 0
Pt 8.4852813742 4.8989794856 8.5000000000   0 0 0
Pt 1.4142135624 0.8164965809 10.8094010768   0 0 0
Pt 4.2426406871 0.8164965809 10.8094010768   0 0 0
Pt 7.0710678119 0.8164965809 10.8094010768   0 0 0
Pt 2.8284271247 3.2659863237 10.8094010768   0 0 0
Pt 5.6568542495 3.2659863237 10.8094010768   0 0 0
Pt 8.4852813742 3.2659863237 10.8094010768   0 0 0
Pt 4.2426406871 5.7154760665 10.8094010768   0 0 0
Pt 7.0710678119 5.7154760665 10.8094010768   0 0 0
Pt 9.8994949366 5.7154760665 10.8094010768   0 0 0
Pt 0.0091373559 1.6165537302 13.1074048562  
Pt 2.8191168135 1.6166115376 13.1074511749  
Pt 5.6567792698 1.6140205997 13.0863239614  
Pt 1.4141936414 4.0424079664 13.1169000622  
Pt 4.2413616680 4.0613194377 13.0902426772  
Pt 7.0721877084 4.0612692336 13.0903375593  
Pt 2.8283838993 6.5076418475 13.0852856168  
Pt 5.6567467665 6.5118881966 13.0892335063  
Pt 8.4852504699 6.5076652271 13.0853093064  
Pt -0.0075076832 -0.0530170425 15.4093612758  
Pt 2.8355825091 -0.0529886245 15.4093361843  
Pt 5.6567419268 -0.0467859188 15.4120120789  
Pt 1.4139972626 2.3928136578 15.5454986785  
Pt 4.2464329752 2.4010739041 15.4121136984  
Pt 7.0669456043 2.4010103879 15.4121169445  
Pt 2.8270219169 4.8549670930 15.4157916006  
Pt 5.6566683995 4.8515519844 15.4111704316  
Pt 8.4864546411 4.8549751075 15.4157996564  
H 1.4131069154 2.2349468317 17.0937699898  

