&CONTROL
   tprnfor          = .true.
   pseudo_dir       = '/users/kbadger1/espresso/pseudo/pslibrary.1.0.0/pbe/PSEUDOPOTENTIALS/'
/
&SYSTEM
   ecutwfc          = 40
   ecutrho          = 410
   nosym            = .true.
   occupations      = 'smearing'
   degauss          = 0.001
   smearing         = 'marzari-vanderbilt'
   nspin            = 1
   input_dft        = 'beef-vdw'
   ntyp             = 3
   nat              = 39
   ibrav            = 0
/
&ELECTRONS
   conv_thr         = 1e-08
   mixing_mode      = 'local-TF'
/
&IONS
/
&CELL
/
&FCP
/
&RISM
/
ATOMIC_SPECIES
Pt 195.084 Pt.pbe-n-kjpaw_psl.1.0.0.UPF
O 15.999 O.pbe-nl-kjpaw_psl.1.0.0.UPF
H 1.008 H.pbe-kjpaw_psl.1.0.0.UPF

K_POINTS automatic
5 5 1  0 0 0

CELL_PARAMETERS angstrom
8.48528137423857 0.00000000000000 0.00000000000000
4.24264068711929 7.34846922834953 0.00000000000000
0.00000000000000 0.00000000000000 23.92820323027551

ATOMIC_POSITIONS angstrom
Pt 0.0000000000 0.0000000000 8.5000000000   0 0 0
Pt 2.8284271247 0.0000000000 8.5000000000   0 0 0
Pt 5.6568542495 0.0000000000 8.5000000000   0 0 0
Pt 1.4142135624 2.4494897428 8.5000000000   0 0 0
Pt 4.2426406871 2.4494897428 8.5000000000   0 0 0
Pt 7.0710678119 2.4494897428 8.5000000000   0 0 0
Pt 2.8284271247 4.8989794856 8.5000000000   0 0 0
Pt 5.6568542495 4.8989794856 8.5000000000   0 0 0
Pt 8.4852813742 4.8989794856 8.5000000000   0 0 0
Pt 1.4142135624 0.8164965809 10.8094010768   0 0 0
Pt 4.2426406871 0.8164965809 10.8094010768   0 0 0
Pt 7.0710678119 0.8164965809 10.8094010768   0 0 0
Pt 2.8284271247 3.2659863237 10.8094010768   0 0 0
Pt 5.6568542495 3.2659863237 10.8094010768   0 0 0
Pt 8.4852813742 3.2659863237 10.8094010768   0 0 0
Pt 4.2426406871 5.7154760665 10.8094010768   0 0 0
Pt 7.0710678119 5.7154760665 10.8094010768   0 0 0
Pt 9.8994949366 5.7154760665 10.8094010768   0 0 0
Pt -0.0665148920 1.6835867256 13.0917770137  
Pt 2.7573829829 1.6905512638 13.0999323200  
Pt 5.5909961260 1.6836244267 13.1000780709  
Pt 1.3415519008 4.1421326069 13.1087663489  
Pt 4.1659077796 4.1195268173 13.1282296357  
Pt 6.9985252597 4.1411190934 13.1002363190  
Pt 2.7687363810 6.5775026950 13.0920891414  
Pt 5.5794314019 6.5791374569 13.0900445619  
Pt 8.4142463371 6.5857589732 13.0960469588  
Pt -0.1411990228 0.1155988413 15.4395076664  
Pt 2.6756209266 0.0925908068 15.4011820588  
Pt 5.5344866965 0.0797554422 15.4083455975  
Pt 1.2578566220 2.5652342808 15.4321132594  
Pt 4.0886181384 2.6045311162 15.4294429522  
Pt 6.9503137556 2.5689572195 15.4162013227  
Pt 2.6770216699 5.0322130897 15.4579704922  
Pt 5.5242015486 5.0274183268 15.4463605356  
Pt 8.3417859326 5.0122836634 15.4492541524  
O 4.3444926772 1.9581027313 17.7256695455  
H 5.0272512897 2.5798619970 18.0255407876  
H 4.8394006652 1.1624302581 17.4101923603  

