&CONTROL
   tprnfor          = .true.
   pseudo_dir       = '/users/kbadger1/espresso/pseudo/pslibrary.1.0.0/pbe/PSEUDOPOTENTIALS/'
/
&SYSTEM
   ecutwfc          = 40
   ecutrho          = 410
   nosym            = .true.
   occupations      = 'smearing'
   degauss          = 0.001
   smearing         = 'marzari-vanderbilt'
   nspin            = 1
   input_dft        = 'beef-vdw'
   ntyp             = 3
   nat              = 39
   ibrav            = 0
/
&ELECTRONS
   mixing_mode      = 'local-TF'
/
&IONS
/
&CELL
/
&FCP
/
&RISM
/
ATOMIC_SPECIES
Pt 195.084 Pt.pbe-n-kjpaw_psl.1.0.0.UPF
C 12.011 C.pbe-n-kjpaw_psl.1.0.0.UPF
H 1.008 H.pbe-kjpaw_psl.1.0.0.UPF

K_POINTS automatic
5 5 1  0 0 0

CELL_PARAMETERS angstrom
8.48528137423857 0.00000000000000 0.00000000000000
4.24264068711929 7.34846922834953 0.00000000000000
0.00000000000000 0.00000000000000 23.92820323027551

ATOMIC_POSITIONS angstrom
Pt 0.0000000000 0.0000000000 8.5000000000   0 0 0
Pt 2.8284271247 0.0000000000 8.5000000000   0 0 0
Pt 5.6568542495 0.0000000000 8.5000000000   0 0 0
Pt 1.4142135624 2.4494897428 8.5000000000   0 0 0
Pt 4.2426406871 2.4494897428 8.5000000000   0 0 0
Pt 7.0710678119 2.4494897428 8.5000000000   0 0 0
Pt 2.8284271247 4.8989794856 8.5000000000   0 0 0
Pt 5.6568542495 4.8989794856 8.5000000000   0 0 0
Pt 8.4852813742 4.8989794856 8.5000000000   0 0 0
Pt 1.4142135624 0.8164965809 10.8094010768   0 0 0
Pt 4.2426406871 0.8164965809 10.8094010768   0 0 0
Pt 7.0710678119 0.8164965809 10.8094010768   0 0 0
Pt 2.8284271247 3.2659863237 10.8094010768   0 0 0
Pt 5.6568542495 3.2659863237 10.8094010768   0 0 0
Pt 8.4852813742 3.2659863237 10.8094010768   0 0 0
Pt 4.2426406871 5.7154760665 10.8094010768   0 0 0
Pt 7.0710678119 5.7154760665 10.8094010768   0 0 0
Pt 9.8994949366 5.7154760665 10.8094010768   0 0 0
Pt 0.0180215720 1.6132578376 13.1401495618  
Pt 2.8100756913 1.6132611556 13.1401052958  
Pt 5.6567481271 1.6356460548 13.0485063422  
Pt 1.4140195414 4.0600806356 13.1414845798  
Pt 4.2213134594 4.0905486222 13.1152990381  
Pt 7.0920517721 4.0905713999 13.1152595006  
Pt 2.8455935688 6.5190847668 13.1346997881  
Pt 5.6567170242 6.5403945605 13.1328779556  
Pt 8.4677848967 6.5191344844 13.1345466364  
Pt -0.1286871734 -0.1149167928 15.5643479881  
Pt 2.9563837514 -0.1146876357 15.5642175304  
Pt 5.6565391108 0.0171380285 15.3792147336  
Pt 1.4137528803 2.3852200314 15.6111441734  
Pt 4.2853520786 2.4229034687 15.3879180394  
Pt 7.0278516931 2.4229396701 15.3878877376  
Pt 2.8529160314 4.8439110171 15.5901483301  
Pt 5.6565288823 4.8339110540 15.3929294851  
Pt 8.4600883255 4.8442410750 15.5897750928  
C 1.4138530998 0.5827938468 16.4117416813  
H 1.4126399323 3.3475471769 17.5528732802  
C 1.4134461800 4.1371650103 16.7387560616  

