&CONTROL
   tprnfor          = .true.
   pseudo_dir       = '/users/kbadger1/espresso/pseudo/pslibrary.1.0.0/pbe/PSEUDOPOTENTIALS/'
/
&SYSTEM
   ecutwfc          = 40
   ecutrho          = 410
   nosym            = .true.
   occupations      = 'smearing'
   degauss          = 0.02
   smearing         = 'marzari-vanderbilt'
   nspin            = 1
   input_dft        = 'beef-vdw'
   ntyp             = 3
   nat              = 39
   ibrav            = 0
/
&ELECTRONS
   mixing_mode      = 'local-TF'
/
&IONS
/
&CELL
/
&FCP
/
&RISM
/
ATOMIC_SPECIES
Pt 195.084 Pt.pbe-n-kjpaw_psl.1.0.0.UPF
O 15.999 O.pbe-nl-kjpaw_psl.1.0.0.UPF
H 1.008 H.pbe-kjpaw_psl.1.0.0.UPF

K_POINTS automatic
5 5 1  0 0 0

CELL_PARAMETERS angstrom
8.48528137423857 0.00000000000000 0.00000000000000
4.24264068711929 7.34846922834953 0.00000000000000
0.00000000000000 0.00000000000000 23.92820323027551

ATOMIC_POSITIONS angstrom
Pt 0.0000000000 0.0000000000 8.5000000000   0 0 0
Pt 2.8284271247 0.0000000000 8.5000000000   0 0 0
Pt 5.6568542495 0.0000000000 8.5000000000   0 0 0
Pt 1.4142135624 2.4494897428 8.5000000000   0 0 0
Pt 4.2426406871 2.4494897428 8.5000000000   0 0 0
Pt 7.0710678119 2.4494897428 8.5000000000   0 0 0
Pt 2.8284271247 4.8989794856 8.5000000000   0 0 0
Pt 5.6568542495 4.8989794856 8.5000000000   0 0 0
Pt 8.4852813742 4.8989794856 8.5000000000   0 0 0
Pt 1.4142135624 0.8164965809 10.8094010768   0 0 0
Pt 4.2426406871 0.8164965809 10.8094010768   0 0 0
Pt 7.0710678119 0.8164965809 10.8094010768   0 0 0
Pt 2.8284271247 3.2659863237 10.8094010768   0 0 0
Pt 5.6568542495 3.2659863237 10.8094010768   0 0 0
Pt 8.4852813742 3.2659863237 10.8094010768   0 0 0
Pt 4.2426406871 5.7154760665 10.8094010768   0 0 0
Pt 7.0710678119 5.7154760665 10.8094010768   0 0 0
Pt 9.8994949366 5.7154760665 10.8094010768   0 0 0
Pt 0.0060702255 1.6275625023 13.0844696674  
Pt 2.8391887187 1.6313008466 13.0987612532  
Pt 5.6594585470 1.6310847822 13.0980397116  
Pt 1.4196144488 4.0790245335 13.0915598456  
Pt 4.2492531169 4.0740816391 13.0988294182  
Pt 7.0781447616 4.0788210367 13.0910800679  
Pt 2.8358009619 6.5289523411 13.0848670825  
Pt 5.6620475562 6.5285607640 13.0860642353  
Pt 8.4917032722 6.5268761412 13.0905640294  
Pt 0.0128790256 -0.0092200399 15.4179266928  
Pt 2.8375166955 -0.0178782951 15.4137764131  
Pt 5.6731729034 -0.0175991579 15.4137868374  
Pt 1.4173477438 2.4413040534 15.4123869363  
Pt 4.2529877287 2.4417829316 15.4397353069  
Pt 7.0933900182 2.4425207588 15.4130438549  
Pt 2.8360541196 4.8987921664 15.4127352795  
Pt 5.6758682698 4.8980731420 15.4147888086  
Pt 8.4980268038 4.8901124382 15.4241704797  
O 4.3208243025 2.4040655564 18.0432334936  
H 5.1285527413 2.9169839368 18.2005741174  
H 4.5779380467 1.4803611471 18.1886682623  

