&CONTROL
   tprnfor          = .true.
   pseudo_dir       = '/users/kbadger1/espresso/pseudo/pslibrary.1.0.0/pbe/PSEUDOPOTENTIALS/'
/
&SYSTEM
   ecutwfc          = 40
   ecutrho          = 410
   nosym            = .true.
   occupations      = 'smearing'
   degauss          = 0.001
   smearing         = 'marzari-vanderbilt'
   nspin            = 1
   input_dft        = 'beef-vdw'
   ntyp             = 3
   nat              = 39
   ibrav            = 0
/
&ELECTRONS
   mixing_mode      = 'local-TF'
/
&IONS
/
&CELL
/
&FCP
/
&RISM
/
ATOMIC_SPECIES
Pt 195.084 Pt.pbe-n-kjpaw_psl.1.0.0.UPF
O 15.999 O.pbe-nl-kjpaw_psl.1.0.0.UPF
H 1.008 H.pbe-kjpaw_psl.1.0.0.UPF

K_POINTS automatic
5 5 1  0 0 0

CELL_PARAMETERS angstrom
8.48528137423857 0.00000000000000 0.00000000000000
4.24264068711929 7.34846922834953 0.00000000000000
0.00000000000000 0.00000000000000 23.92820323027551

ATOMIC_POSITIONS angstrom
Pt 0.0000000000 0.0000000000 8.5000000000   0 0 0
Pt 2.8284271247 0.0000000000 8.5000000000   0 0 0
Pt 5.6568542495 0.0000000000 8.5000000000   0 0 0
Pt 1.4142135624 2.4494897428 8.5000000000   0 0 0
Pt 4.2426406871 2.4494897428 8.5000000000   0 0 0
Pt 7.0710678119 2.4494897428 8.5000000000   0 0 0
Pt 2.8284271247 4.8989794856 8.5000000000   0 0 0
Pt 5.6568542495 4.8989794856 8.5000000000   0 0 0
Pt 8.4852813742 4.8989794856 8.5000000000   0 0 0
Pt 1.4142135624 0.8164965809 10.8094010768   0 0 0
Pt 4.2426406871 0.8164965809 10.8094010768   0 0 0
Pt 7.0710678119 0.8164965809 10.8094010768   0 0 0
Pt 2.8284271247 3.2659863237 10.8094010768   0 0 0
Pt 5.6568542495 3.2659863237 10.8094010768   0 0 0
Pt 8.4852813742 3.2659863237 10.8094010768   0 0 0
Pt 4.2426406871 5.7154760665 10.8094010768   0 0 0
Pt 7.0710678119 5.7154760665 10.8094010768   0 0 0
Pt 9.8994949366 5.7154760665 10.8094010768   0 0 0
Pt -0.0772098029 1.6764681537 13.1008476485  
Pt 2.7551004207 1.6826294088 13.1170307657  
Pt 5.5761485963 1.6786231728 13.1133421400  
Pt 1.3335233973 4.1282484969 13.1090244052  
Pt 4.1623141628 4.1202829742 13.1171454971  
Pt 6.9915926391 4.1281798742 13.1067221130  
Pt 2.7514969396 6.5760578737 13.1006911849  
Pt 5.5767908273 6.5776132252 13.1000535521  
Pt 8.4055644809 6.5767785455 13.1065942865  
Pt -0.1592259072 0.0899782816 15.4444105812  
Pt 2.6650343788 0.0793836349 15.4404184414  
Pt 5.5012687604 0.0801637491 15.4406996962  
Pt 1.2419380528 2.5400918643 15.4434507813  
Pt 4.0709462194 2.5458331221 15.4679130814  
Pt 6.9223219333 2.5421994848 15.4394354885  
Pt 2.6626266115 5.0005604382 15.4438655627  
Pt 5.5052423565 4.9979387444 15.4416133143  
Pt 8.3254716820 4.9898095196 15.4517364941  
O 4.1868883953 2.4898125590 18.0472034367  
H 4.9766088515 3.0323585764 18.1979099766  
H 4.4800718892 1.5752882827 18.1836713704  

