Pt  H 
 1.0000000000000000
     8.4683100000000007    0.0000000000000000    0.0000000000000000
     4.2341550000000012    7.3337715871217997    0.0000000000000000
     0.0000000000000000    0.0000000000000000   24.9656619900000010
 Pt  H  
  36   1
Selective dynamics
Cartesian
  0.0000000000000000  0.0000000000000000  8.5000000000000000   F   F   F
  2.8284271247461903  0.0000000000000000  8.5000000000000000   F   F   F
  5.6568542494923806  0.0000000000000000  8.5000000000000000   F   F   F
  1.4142135623730951  2.4494897427831779  8.5000000000000000   F   F   F
  4.2426406871192857  2.4494897427831779  8.5000000000000000   F   F   F
  7.0710678118654755  2.4494897427831779  8.5000000000000000   F   F   F
  2.8284271247461903  4.8989794855663558  8.5000000000000000   F   F   F
  5.6568542494923806  4.8989794855663558  8.5000000000000000   F   F   F
  8.4852813742385713  4.8989794855663558  8.5000000000000000   F   F   F
  1.4142135623730951  0.8164965809277259 10.8094010767585029   F   F   F
  4.2426406871192848  0.8164965809277259 10.8094010767585029   F   F   F
  7.0710678118654755  0.8164965809277259 10.8094010767585029   F   F   F
  2.8284271247461903  3.2659863237109037 10.8094010767585029   F   F   F
  5.6568542494923806  3.2659863237109037 10.8094010767585029   F   F   F
  8.4852813742385713  3.2659863237109037 10.8094010767585029   F   F   F
  4.2426406871192857  5.7154760664940820 10.8094010767585029   F   F   F
  7.0710678118654755  5.7154760664940820 10.8094010767585029   F   F   F
  9.8994949366116671  5.7154760664940820 10.8094010767585029   F   F   F
  0.0205008624011718  1.6434619422741055 13.1007294359655351   T   T   T
  2.8372971787518257  1.6440068479577468 13.1101077625676421   T   T   T
  5.6559521116778928  1.6422872923226794 13.0967471176147630   T   T   T
  1.4310405644309219  4.0833502855893702 13.1119935698247190   T   T   T
  4.2465437419548175  4.0828838164240180 13.1097117236945309   T   T   T
  7.0726144323586935  4.0829756644790418 13.0851562102524728   T   T   T
  2.8405100654910513  6.5229632360044461 13.1030619044972525   T   T   T
  5.6605887407643092  6.5295064531862863 13.0901548818203537   T   T   T
  8.4857913710198432  6.5294909161241179 13.0892172196678658   T   T   T
  0.0189576206784071  0.0116486697158972 15.4252540694842057   T   T   T
  2.8387846514337896 -0.0028634729187519 15.4171608614135707   T   T   T
  5.6603000363986409  0.0127767317373620 15.4230593978889008   T   T   T
  1.3914792166207075  2.4358064105526727 15.4688207211511024   T   T   T
  4.2853121251028892  2.4366587469423635 15.4645903185003721   T   T   T
  7.0737159217774197  2.4591447182638491 15.4220584241432483   T   T   T
  2.8393086929187912  4.9423068930307048 15.4677058062704411   T   T   T
  5.6762751873946957  4.9095998452854568 15.4171678504808565   T   T   T
  8.4698710323230522  4.9093813433422513 15.4159511207238875   T   T   T
  2.8302380903969446  3.2743907602481008 16.3051562187169417   T   T   T
