&CONTROL
   calculation      = 'ensemble'
   tprnfor          = .true.
   pseudo_dir       = '/users/kbadger1/espresso/pseudo/pslibrary.1.0.0/pbe/PSEUDOPOTENTIALS/'
/
&SYSTEM
   ecutwfc          = 50
   ecutrho          = 410
   nosym            = .true.
   occupations      = 'smearing'
   degauss          = 0.02
   smearing         = 'marzari-vanderbilt'
   nspin            = 1
   input_dft        = 'beef-vdw'
   ntyp             = 5
   nat              = 40
   ibrav            = 0
/
&ELECTRONS
   conv_thr         = 1e-08
   mixing_mode      = 'local-TF'
/
&IONS
/
&CELL
/
&FCP
/
&RISM
/
ATOMIC_SPECIES
Pt 195.084 Pt.pbe-n-kjpaw_psl.1.0.0.UPF
C 12.011 C.pbe-n-kjpaw_psl.1.0.0.UPF
H 1.008 H.pbe-kjpaw_psl.1.0.0.UPF
N 14.007 N.pbe-n-kjpaw_psl.1.0.0.UPF
O 15.999 O.pbe-nl-kjpaw_psl.1.0.0.UPF

K_POINTS automatic
5 5 1  0 0 0

CELL_PARAMETERS angstrom
8.48528137423857 0.00000000000000 0.00000000000000
4.24264068711929 7.34846922834953 0.00000000000000
0.00000000000000 0.00000000000000 23.92820323027551

ATOMIC_POSITIONS angstrom
Pt 0.0000000000 0.0000000000 8.5000000000   0 0 0
Pt 2.8284271247 0.0000000000 8.5000000000   0 0 0
Pt 5.6568542495 0.0000000000 8.5000000000   0 0 0
Pt 1.4142135624 2.4494897428 8.5000000000   0 0 0
Pt 4.2426406871 2.4494897428 8.5000000000   0 0 0
Pt 7.0710678119 2.4494897428 8.5000000000   0 0 0
Pt 2.8284271247 4.8989794856 8.5000000000   0 0 0
Pt 5.6568542495 4.8989794856 8.5000000000   0 0 0
Pt 8.4852813742 4.8989794856 8.5000000000   0 0 0
Pt 1.4142135624 0.8164965809 10.8094010768   0 0 0
Pt 4.2426406871 0.8164965809 10.8094010768   0 0 0
Pt 7.0710678119 0.8164965809 10.8094010768   0 0 0
Pt 2.8284271247 3.2659863237 10.8094010768   0 0 0
Pt 5.6568542495 3.2659863237 10.8094010768   0 0 0
Pt 8.4852813742 3.2659863237 10.8094010768   0 0 0
Pt 4.2426406871 5.7154760665 10.8094010768   0 0 0
Pt 7.0710678119 5.7154760665 10.8094010768   0 0 0
Pt 9.8994949366 5.7154760665 10.8094010768   0 0 0
Pt 0.0110257318 1.6182901913 13.1325816154  
Pt 2.8352896577 1.6354122895 13.0953062252  
Pt 5.6566238578 1.6170030084 13.1264077201  
Pt 1.4237129603 4.0668036180 13.1084942238  
Pt 4.2382855379 4.0582118521 13.1116610411  
Pt 7.0792119918 4.0709861791 13.0745840487  
Pt 2.8308608401 6.5686442096 13.1899338249  
Pt 5.6477915593 6.5291825358 13.1131096851  
Pt 8.5134557361 6.5303320567 13.1019005566  
Pt 0.0024049095 -0.0135808167 15.6978040786  
Pt 2.7954330089 -0.0843760925 15.3920456304  
Pt 5.7510225452 -0.0681663704 15.6579967746  
Pt 1.4193241856 2.4823573596 15.5516277031  
Pt 4.2643219677 2.5295977089 15.5210566836  
Pt 7.0723417288 2.4632428671 15.4116543062  
Pt 2.8448049176 4.9122511991 15.4269074799  
Pt 5.6635704472 4.8514496524 15.3912161842  
Pt 8.4990742656 4.8591023965 15.3956931204  
C 1.4702049051 0.8714229027 16.6797722293  
H 2.5830387863 0.9209872299 17.7176941481  
N 4.1943580006 0.8486526068 16.6572023651  
O 3.7494763669 0.8855051925 17.9105274662  

