&CONTROL
   tprnfor          = .true.
   pseudo_dir       = '/users/kbadger1/espresso/pseudo/pslibrary.1.0.0/pbe/PSEUDOPOTENTIALS/'
/
&SYSTEM
   ecutwfc          = 40
   ecutrho          = 410
   nosym            = .true.
   occupations      = 'smearing'
   degauss          = 0.001
   smearing         = 'marzari-vanderbilt'
   nspin            = 1
   input_dft        = 'beef-vdw'
   ntyp             = 3
   nat              = 39
   ibrav            = 0
/
&ELECTRONS
   mixing_mode      = 'local-TF'
/
&IONS
/
&CELL
/
&FCP
/
&RISM
/
ATOMIC_SPECIES
Pt 195.084 Pt.pbe-n-kjpaw_psl.1.0.0.UPF
C 12.011 C.pbe-n-kjpaw_psl.1.0.0.UPF
H 1.008 H.pbe-kjpaw_psl.1.0.0.UPF

K_POINTS automatic
5 5 1  0 0 0

CELL_PARAMETERS angstrom
8.48528137423857 0.00000000000000 0.00000000000000
4.24264068711929 7.34846922834953 0.00000000000000
0.00000000000000 0.00000000000000 23.92820323027551

ATOMIC_POSITIONS angstrom
Pt 0.0000000000 0.0000000000 8.5000000000   0 0 0
Pt 2.8284271247 0.0000000000 8.5000000000   0 0 0
Pt 5.6568542495 0.0000000000 8.5000000000   0 0 0
Pt 1.4142135624 2.4494897428 8.5000000000   0 0 0
Pt 4.2426406871 2.4494897428 8.5000000000   0 0 0
Pt 7.0710678119 2.4494897428 8.5000000000   0 0 0
Pt 2.8284271247 4.8989794856 8.5000000000   0 0 0
Pt 5.6568542495 4.8989794856 8.5000000000   0 0 0
Pt 8.4852813742 4.8989794856 8.5000000000   0 0 0
Pt 1.4142135624 0.8164965809 10.8094010768   0 0 0
Pt 4.2426406871 0.8164965809 10.8094010768   0 0 0
Pt 7.0710678119 0.8164965809 10.8094010768   0 0 0
Pt 2.8284271247 3.2659863237 10.8094010768   0 0 0
Pt 5.6568542495 3.2659863237 10.8094010768   0 0 0
Pt 8.4852813742 3.2659863237 10.8094010768   0 0 0
Pt 4.2426406871 5.7154760665 10.8094010768   0 0 0
Pt 7.0710678119 5.7154760665 10.8094010768   0 0 0
Pt 9.8994949366 5.7154760665 10.8094010768   0 0 0
Pt 0.0162455411 1.5820052980 13.1275992508  
Pt 2.8112772538 1.5819668397 13.1274760364  
Pt 5.6564619519 1.6005016652 13.0505613148  
Pt 1.4137278865 4.0389632120 13.1375547469  
Pt 4.2259357562 4.0633516602 13.1166619565  
Pt 7.0868520387 4.0633363332 13.1167267338  
Pt 2.8484991416 6.4869420223 13.1455009890  
Pt 5.6563808395 6.5101209446 13.1451368434  
Pt 8.4642927653 6.4869215903 13.1454085464  
Pt -0.1280632143 -0.1715901522 15.5875764456  
Pt 2.9546928035 -0.1715060296 15.5872804865  
Pt 5.6559886333 -0.0502409702 15.3900233368  
Pt 1.4133416251 2.3526922501 15.5859769645  
Pt 4.2830908955 2.3671572821 15.3758242966  
Pt 7.0289513256 2.3671426721 15.3759623504  
Pt 2.8449652421 4.7904462721 15.6079630258  
Pt 5.6559874451 4.7816483959 15.4090955972  
Pt 8.4668485123 4.7905780399 15.6079109829  
C 1.4133709069 0.5780800404 16.4028553296  
H 1.4130759107 3.8344466236 17.8096284577  
C 1.4131408576 4.0148445395 16.7369631922  

