&CONTROL
   tprnfor          = .true.
   pseudo_dir       = '/users/kbadger1/espresso/pseudo/pslibrary.1.0.0/pbe/PSEUDOPOTENTIALS/'
/
&SYSTEM
   ecutwfc          = 40
   ecutrho          = 410
   nosym            = .true.
   occupations      = 'smearing'
   degauss          = 0.001
   smearing         = 'marzari-vanderbilt'
   nspin            = 1
   input_dft        = 'beef-vdw'
   ntyp             = 3
   nat              = 39
   ibrav            = 0
/
&ELECTRONS
   mixing_mode      = 'local-TF'
/
&IONS
/
&CELL
/
&FCP
/
&RISM
/
ATOMIC_SPECIES
Pt 195.084 Pt.pbe-n-kjpaw_psl.1.0.0.UPF
C 12.011 C.pbe-n-kjpaw_psl.1.0.0.UPF
H 1.008 H.pbe-kjpaw_psl.1.0.0.UPF

K_POINTS automatic
5 5 1  0 0 0

CELL_PARAMETERS angstrom
8.48528137423857 0.00000000000000 0.00000000000000
4.24264068711929 7.34846922834953 0.00000000000000
0.00000000000000 0.00000000000000 23.92820323027551

ATOMIC_POSITIONS angstrom
Pt 0.0000000000 0.0000000000 8.5000000000   0 0 0
Pt 2.8284271247 0.0000000000 8.5000000000   0 0 0
Pt 5.6568542495 0.0000000000 8.5000000000   0 0 0
Pt 1.4142135624 2.4494897428 8.5000000000   0 0 0
Pt 4.2426406871 2.4494897428 8.5000000000   0 0 0
Pt 7.0710678119 2.4494897428 8.5000000000   0 0 0
Pt 2.8284271247 4.8989794856 8.5000000000   0 0 0
Pt 5.6568542495 4.8989794856 8.5000000000   0 0 0
Pt 8.4852813742 4.8989794856 8.5000000000   0 0 0
Pt 1.4142135624 0.8164965809 10.8094010768   0 0 0
Pt 4.2426406871 0.8164965809 10.8094010768   0 0 0
Pt 7.0710678119 0.8164965809 10.8094010768   0 0 0
Pt 2.8284271247 3.2659863237 10.8094010768   0 0 0
Pt 5.6568542495 3.2659863237 10.8094010768   0 0 0
Pt 8.4852813742 3.2659863237 10.8094010768   0 0 0
Pt 4.2426406871 5.7154760665 10.8094010768   0 0 0
Pt 7.0710678119 5.7154760665 10.8094010768   0 0 0
Pt 9.8994949366 5.7154760665 10.8094010768   0 0 0
Pt 0.0354619751 1.6291612853 13.1729920251  
Pt 2.7927815446 1.6290396227 13.1725216058  
Pt 5.6568834287 1.6517523838 13.0589099468  
Pt 1.4142811871 4.0485888277 13.1509641075  
Pt 4.2172117785 4.0848898159 13.1036786279  
Pt 7.0968767754 4.0848819037 13.1035922382  
Pt 2.8391372704 6.5313550100 13.1167296706  
Pt 5.6569927839 6.5394906933 13.1196373314  
Pt 8.4750259956 6.5311220725 13.1168133108  
Pt -0.1168635692 -0.0837521247 15.5135393129  
Pt 2.9472498055 -0.0834926380 15.5128954891  
Pt 5.6575502816 0.0539205300 15.3815189521  
Pt 1.4085344984 2.5293579160 16.1274423670  
Pt 4.2647106149 2.4280613939 15.3981346593  
Pt 7.0469713990 2.4281800913 15.3987082636  
Pt 2.8880590971 4.8899828523 15.5199578612  
Pt 5.6572379256 4.8300334312 15.3777571556  
Pt 8.4266780787 4.8903939944 15.5206621862  
C 1.4156628203 0.5763604852 16.3581568565  
H 1.4055098496 2.5470923412 17.6870652210  
C 1.4152787125 4.6278765206 16.6733036957  

