&CONTROL
   tprnfor          = .true.
   pseudo_dir       = '/users/kbadger1/espresso/pseudo/pslibrary.1.0.0/pbe/PSEUDOPOTENTIALS/'
/
&SYSTEM
   ecutwfc          = 40
   ecutrho          = 410
   nosym            = .true.
   occupations      = 'smearing'
   degauss          = 0.001
   smearing         = 'marzari-vanderbilt'
   nspin            = 1
   input_dft        = 'beef-vdw'
   ntyp             = 4
   nat              = 41
   ibrav            = 0
/
&ELECTRONS
   mixing_mode      = 'local-TF'
/
&IONS
/
&CELL
/
&FCP
/
&RISM
/
ATOMIC_SPECIES
Pt 195.084 Pt.pbe-n-kjpaw_psl.1.0.0.UPF
O 15.999 O.pbe-nl-kjpaw_psl.1.0.0.UPF
H 1.008 H.pbe-kjpaw_psl.1.0.0.UPF
C 12.011 C.pbe-n-kjpaw_psl.1.0.0.UPF

K_POINTS automatic
5 5 1  0 0 0

CELL_PARAMETERS angstrom
8.48528137423857 0.00000000000000 0.00000000000000
4.24264068711929 7.34846922834953 0.00000000000000
0.00000000000000 0.00000000000000 23.92820323027551

ATOMIC_POSITIONS angstrom
Pt 0.0000000000 0.0000000000 8.5000000000   0 0 0
Pt 2.8284271247 0.0000000000 8.5000000000   0 0 0
Pt 5.6568542495 0.0000000000 8.5000000000   0 0 0
Pt 1.4142135624 2.4494897428 8.5000000000   0 0 0
Pt 4.2426406871 2.4494897428 8.5000000000   0 0 0
Pt 7.0710678119 2.4494897428 8.5000000000   0 0 0
Pt 2.8284271247 4.8989794856 8.5000000000   0 0 0
Pt 5.6568542495 4.8989794856 8.5000000000   0 0 0
Pt 8.4852813742 4.8989794856 8.5000000000   0 0 0
Pt 1.4142135624 0.8164965809 10.8094010768   0 0 0
Pt 4.2426406871 0.8164965809 10.8094010768   0 0 0
Pt 7.0710678119 0.8164965809 10.8094010768   0 0 0
Pt 2.8284271247 3.2659863237 10.8094010768   0 0 0
Pt 5.6568542495 3.2659863237 10.8094010768   0 0 0
Pt 8.4852813742 3.2659863237 10.8094010768   0 0 0
Pt 4.2426406871 5.7154760665 10.8094010768   0 0 0
Pt 7.0710678119 5.7154760665 10.8094010768   0 0 0
Pt 9.8994949366 5.7154760665 10.8094010768   0 0 0
Pt -0.0402116545 1.6816628854 13.1230055209  
Pt 2.8064763523 1.7112175974 13.1322777282  
Pt 5.6053229227 1.7140385356 13.1350356658  
Pt 1.3877381830 4.1557885017 13.1325698052  
Pt 4.2056698531 4.1339109965 13.1227711250  
Pt 7.0231524765 4.1572317142 13.1343603921  
Pt 2.7920262180 6.5979223986 13.0949257947  
Pt 5.6163778766 6.5982778704 13.0978122977  
Pt 8.4469703710 6.5964103449 13.0914447571  
Pt -0.0629725911 0.2110611972 15.4707433742  
Pt 2.7820931956 0.1184802588 15.4107593658  
Pt 5.5800819828 0.1162325157 15.4066500463  
Pt 1.3384170974 2.5508459554 15.4414733031  
Pt 4.1881112262 2.5348089096 15.6500887275  
Pt 7.0294210061 2.5523658522 15.4568951582  
Pt 2.6761455970 4.9543500363 15.4462553335  
Pt 5.6803148110 4.9554962138 15.4644392815  
Pt 8.4250690109 5.0130769525 15.4550314479  
O 4.1762036228 5.8249680509 16.5827601578  
H 3.8288123121 3.8416909833 17.9037388986  
H 5.0802330349 2.5898853841 18.1202863810  
H 3.3589958087 2.1117324710 18.1035954867  
C 4.0986925572 2.8013960482 17.7178989213  

