&CONTROL
   tprnfor          = .true.
   pseudo_dir       = '/users/kbadger1/espresso/pseudo/pslibrary.1.0.0/pbe/PSEUDOPOTENTIALS/'
/
&SYSTEM
   ecutwfc          = 40
   ecutrho          = 410
   nosym            = .true.
   occupations      = 'smearing'
   degauss          = 0.001
   smearing         = 'marzari-vanderbilt'
   nspin            = 1
   input_dft        = 'beef-vdw'
   ntyp             = 3
   nat              = 39
   ibrav            = 0
/
&ELECTRONS
   mixing_mode      = 'local-TF'
/
&IONS
/
&CELL
/
&FCP
/
&RISM
/
ATOMIC_SPECIES
Pt 195.084 Pt.pbe-n-kjpaw_psl.1.0.0.UPF
O 15.999 O.pbe-nl-kjpaw_psl.1.0.0.UPF
H 1.008 H.pbe-kjpaw_psl.1.0.0.UPF

K_POINTS automatic
5 5 1  0 0 0

CELL_PARAMETERS angstrom
8.48528137423857 0.00000000000000 0.00000000000000
4.24264068711929 7.34846922834953 0.00000000000000
0.00000000000000 0.00000000000000 23.92820323027551

ATOMIC_POSITIONS angstrom
Pt 0.0000000000 0.0000000000 8.5000000000   0 0 0
Pt 2.8284271247 0.0000000000 8.5000000000   0 0 0
Pt 5.6568542495 0.0000000000 8.5000000000   0 0 0
Pt 1.4142135624 2.4494897428 8.5000000000   0 0 0
Pt 4.2426406871 2.4494897428 8.5000000000   0 0 0
Pt 7.0710678119 2.4494897428 8.5000000000   0 0 0
Pt 2.8284271247 4.8989794856 8.5000000000   0 0 0
Pt 5.6568542495 4.8989794856 8.5000000000   0 0 0
Pt 8.4852813742 4.8989794856 8.5000000000   0 0 0
Pt 1.4142135624 0.8164965809 10.8094010768   0 0 0
Pt 4.2426406871 0.8164965809 10.8094010768   0 0 0
Pt 7.0710678119 0.8164965809 10.8094010768   0 0 0
Pt 2.8284271247 3.2659863237 10.8094010768   0 0 0
Pt 5.6568542495 3.2659863237 10.8094010768   0 0 0
Pt 8.4852813742 3.2659863237 10.8094010768   0 0 0
Pt 4.2426406871 5.7154760665 10.8094010768   0 0 0
Pt 7.0710678119 5.7154760665 10.8094010768   0 0 0
Pt 9.8994949366 5.7154760665 10.8094010768   0 0 0
Pt -0.0227158675 1.6154546286 13.0865452735  
Pt 2.8206450006 1.6246136613 13.1425768598  
Pt 5.6098761487 1.6115853674 13.1745593006  
Pt 1.3964485280 4.0663749833 13.0940219152  
Pt 4.2236216186 4.0554207000 13.1193774412  
Pt 7.0533538558 4.0636194734 13.0900914551  
Pt 2.7980600384 6.5300490226 13.1075897313  
Pt 5.6369723613 6.5187414460 13.0799243399  
Pt 8.4778303341 6.5210260192 13.1252542235  
Pt -0.0269474847 -0.0405031495 15.4253448509  
Pt 2.7804788529 -0.0583225410 15.4198236184  
Pt 5.6342307464 -0.0603452836 15.5655037734  
Pt 1.3585632516 2.4119987551 15.4136803703  
Pt 4.2258136844 2.4090003161 15.5645607222  
Pt 7.0517734504 2.4125282530 15.4226677957  
Pt 2.7899079324 4.8738478907 15.4079254647  
Pt 5.6318753872 4.8761493110 15.4138810393  
Pt 8.4457407644 4.8562887034 15.4284745241  
O 4.0378058645 2.4421974403 17.5666572808  
H 4.4173372581 3.2817920563 17.8767878429  
H 5.6307386173 -0.1114492688 17.1185840494  

