&CONTROL
   tprnfor          = .true.
   pseudo_dir       = '/users/kbadger1/espresso/pseudo/pslibrary.1.0.0/pbe/PSEUDOPOTENTIALS/'
/
&SYSTEM
   ecutwfc          = 40
   ecutrho          = 410
   nosym            = .true.
   occupations      = 'smearing'
   degauss          = 0.001
   smearing         = 'marzari-vanderbilt'
   nspin            = 1
   input_dft        = 'beef-vdw'
   ntyp             = 3
   nat              = 39
   ibrav            = 0
/
&ELECTRONS
   conv_thr         = 1e-08
   mixing_mode      = 'local-TF'
/
&IONS
/
&CELL
/
&FCP
/
&RISM
/
ATOMIC_SPECIES
Pt 195.084 Pt.pbe-n-kjpaw_psl.1.0.0.UPF
O 15.999 O.pbe-nl-kjpaw_psl.1.0.0.UPF
H 1.008 H.pbe-kjpaw_psl.1.0.0.UPF

K_POINTS automatic
5 5 1  0 0 0

CELL_PARAMETERS angstrom
8.48528137423857 0.00000000000000 0.00000000000000
4.24264068711929 7.34846922834953 0.00000000000000
0.00000000000000 0.00000000000000 23.92820323027551

ATOMIC_POSITIONS angstrom
Pt 0.0000000000 0.0000000000 8.5000000000   0 0 0
Pt 2.8284271247 0.0000000000 8.5000000000   0 0 0
Pt 5.6568542495 0.0000000000 8.5000000000   0 0 0
Pt 1.4142135624 2.4494897428 8.5000000000   0 0 0
Pt 4.2426406871 2.4494897428 8.5000000000   0 0 0
Pt 7.0710678119 2.4494897428 8.5000000000   0 0 0
Pt 2.8284271247 4.8989794856 8.5000000000   0 0 0
Pt 5.6568542495 4.8989794856 8.5000000000   0 0 0
Pt 8.4852813742 4.8989794856 8.5000000000   0 0 0
Pt 1.4142135624 0.8164965809 10.8094010768   0 0 0
Pt 4.2426406871 0.8164965809 10.8094010768   0 0 0
Pt 7.0710678119 0.8164965809 10.8094010768   0 0 0
Pt 2.8284271247 3.2659863237 10.8094010768   0 0 0
Pt 5.6568542495 3.2659863237 10.8094010768   0 0 0
Pt 8.4852813742 3.2659863237 10.8094010768   0 0 0
Pt 4.2426406871 5.7154760665 10.8094010768   0 0 0
Pt 7.0710678119 5.7154760665 10.8094010768   0 0 0
Pt 9.8994949366 5.7154760665 10.8094010768   0 0 0
Pt -0.0646194165 1.6837145027 13.0872494107  
Pt 2.7698897863 1.7024433917 13.1351065873  
Pt 5.5829845923 1.6906326718 13.1248214061  
Pt 1.3425016260 4.1421831669 13.1067370787  
Pt 4.1617806759 4.1156848092 13.1592639548  
Pt 7.0029457972 4.1431692176 13.0950796193  
Pt 2.7466590534 6.5931595650 13.1201589394  
Pt 5.5787884541 6.5826245094 13.0835490207  
Pt 8.4212858320 6.5970256573 13.1142454683  
Pt -0.1372276393 0.1153614305 15.4381870295  
Pt 2.6653481285 0.0933533702 15.4061336780  
Pt 5.5262810903 0.1052620931 15.5188371085  
Pt 1.2556566086 2.5681728945 15.4267448068  
Pt 4.1052588479 2.5904448675 15.5633517526  
Pt 6.9542110638 2.5711292756 15.4099947610  
Pt 2.6792770548 5.0342455934 15.4524650807  
Pt 5.5255444568 5.0295168002 15.4344921894  
Pt 8.3440615576 5.0144789622 15.4407623830  
O 4.1338064579 2.2851070825 17.5772737223  
H 4.9446319424 2.7021964030 17.9147892686  
H 5.1868868637 0.5160897414 16.9900379673  

