&CONTROL
   tprnfor          = .true.
   pseudo_dir       = '/users/kbadger1/espresso/pseudo/pslibrary.1.0.0/pbe/PSEUDOPOTENTIALS/'
/
&SYSTEM
   ecutwfc          = 40
   ecutrho          = 410
   nosym            = .true.
   occupations      = 'smearing'
   degauss          = 0.001
   smearing         = 'marzari-vanderbilt'
   nspin            = 1
   input_dft        = 'beef-vdw'
   ntyp             = 3
   nat              = 39
   ibrav            = 0
/
&ELECTRONS
   mixing_mode      = 'local-TF'
/
&IONS
/
&CELL
/
&FCP
/
&RISM
/
ATOMIC_SPECIES
Pt 195.084 Pt.pbe-n-kjpaw_psl.1.0.0.UPF
O 15.999 O.pbe-nl-kjpaw_psl.1.0.0.UPF
H 1.008 H.pbe-kjpaw_psl.1.0.0.UPF

K_POINTS automatic
5 5 1  0 0 0

CELL_PARAMETERS angstrom
8.48528137423857 0.00000000000000 0.00000000000000
4.24264068711929 7.34846922834953 0.00000000000000
0.00000000000000 0.00000000000000 23.92820323027551

ATOMIC_POSITIONS angstrom
Pt 0.0000000000 0.0000000000 8.5000000000   0 0 0
Pt 2.8284271247 0.0000000000 8.5000000000   0 0 0
Pt 5.6568542495 0.0000000000 8.5000000000   0 0 0
Pt 1.4142135624 2.4494897428 8.5000000000   0 0 0
Pt 4.2426406871 2.4494897428 8.5000000000   0 0 0
Pt 7.0710678119 2.4494897428 8.5000000000   0 0 0
Pt 2.8284271247 4.8989794856 8.5000000000   0 0 0
Pt 5.6568542495 4.8989794856 8.5000000000   0 0 0
Pt 8.4852813742 4.8989794856 8.5000000000   0 0 0
Pt 1.4142135624 0.8164965809 10.8094010768   0 0 0
Pt 4.2426406871 0.8164965809 10.8094010768   0 0 0
Pt 7.0710678119 0.8164965809 10.8094010768   0 0 0
Pt 2.8284271247 3.2659863237 10.8094010768   0 0 0
Pt 5.6568542495 3.2659863237 10.8094010768   0 0 0
Pt 8.4852813742 3.2659863237 10.8094010768   0 0 0
Pt 4.2426406871 5.7154760665 10.8094010768   0 0 0
Pt 7.0710678119 5.7154760665 10.8094010768   0 0 0
Pt 9.8994949366 5.7154760665 10.8094010768   0 0 0
Pt -0.0636665119 1.6843188217 13.0875375240  
Pt 2.7715060534 1.7021395202 13.1350830439  
Pt 5.5825519768 1.6909623677 13.1278444464  
Pt 1.3441284928 4.1424576488 13.1053747321  
Pt 4.1635329546 4.1199947364 13.1537266440  
Pt 7.0055515027 4.1421370785 13.0950888737  
Pt 2.7468051017 6.5960460107 13.1198115666  
Pt 5.5802896673 6.5841910950 13.0838983873  
Pt 8.4214842740 6.5976127824 13.1150777493  
Pt -0.1344618593 0.1141429475 15.4388355165  
Pt 2.6670915549 0.0909318609 15.4090223770  
Pt 5.5272339665 0.1012769055 15.5221176947  
Pt 1.2573193517 2.5660211938 15.4245572247  
Pt 4.1063353957 2.5847599386 15.5548288170  
Pt 6.9555273924 2.5673107762 15.4118093045  
Pt 2.6815763643 5.0325097762 15.4479765506  
Pt 5.5287279906 5.0262602898 15.4304580262  
Pt 8.3464675325 5.0118387341 15.4395689920  
O 4.1052351000 2.3472666660 17.5678189017  
H 4.9512197730 2.6979828292 17.8931868099  
H 5.2200321652 0.4359960195 17.0118980697  

