&CONTROL
   tprnfor          = .true.
   pseudo_dir       = '/users/kbadger1/espresso/pseudo/pslibrary.1.0.0/pbe/PSEUDOPOTENTIALS/'
/
&SYSTEM
   ecutwfc          = 40
   ecutrho          = 410
   nosym            = .true.
   occupations      = 'smearing'
   degauss          = 0.001
   smearing         = 'marzari-vanderbilt'
   nspin            = 1
   input_dft        = 'beef-vdw'
   ntyp             = 3
   nat              = 38
   ibrav            = 0
/
&ELECTRONS
   conv_thr         = 1e-08
   mixing_mode      = 'local-TF'
/
&IONS
/
&CELL
/
&FCP
/
&RISM
/
ATOMIC_SPECIES
Pt 195.084 Pt.pbe-n-kjpaw_psl.1.0.0.UPF
C 12.011 C.pbe-n-kjpaw_psl.1.0.0.UPF
H 1.008 H.pbe-kjpaw_psl.1.0.0.UPF

K_POINTS automatic
5 5 1  0 0 0

CELL_PARAMETERS angstrom
8.48528137423857 0.00000000000000 0.00000000000000
4.24264068711929 7.34846922834953 0.00000000000000
0.00000000000000 0.00000000000000 23.92820323027551

ATOMIC_POSITIONS angstrom
Pt 0.0000000000 0.0000000000 8.5000000000   0 0 0
Pt 2.8284271247 0.0000000000 8.5000000000   0 0 0
Pt 5.6568542495 0.0000000000 8.5000000000   0 0 0
Pt 1.4142135624 2.4494897428 8.5000000000   0 0 0
Pt 4.2426406871 2.4494897428 8.5000000000   0 0 0
Pt 7.0710678119 2.4494897428 8.5000000000   0 0 0
Pt 2.8284271247 4.8989794856 8.5000000000   0 0 0
Pt 5.6568542495 4.8989794856 8.5000000000   0 0 0
Pt 8.4852813742 4.8989794856 8.5000000000   0 0 0
Pt 1.4142135624 0.8164965809 10.8094010768   0 0 0
Pt 4.2426406871 0.8164965809 10.8094010768   0 0 0
Pt 7.0710678119 0.8164965809 10.8094010768   0 0 0
Pt 2.8284271247 3.2659863237 10.8094010768   0 0 0
Pt 5.6568542495 3.2659863237 10.8094010768   0 0 0
Pt 8.4852813742 3.2659863237 10.8094010768   0 0 0
Pt 4.2426406871 5.7154760665 10.8094010768   0 0 0
Pt 7.0710678119 5.7154760665 10.8094010768   0 0 0
Pt 9.8994949366 5.7154760665 10.8094010768   0 0 0
Pt 0.0054124847 1.6569014918 13.1170230916  
Pt 2.8230365621 1.6569354806 13.1170477086  
Pt 5.6568348709 1.6622149261 13.0870344499  
Pt 1.4142510707 4.1294874697 13.0938901162  
Pt 4.2378216927 4.1152418960 13.0885945065  
Pt 7.0758357818 4.1152452455 13.0885509806  
Pt 2.8434206904 6.5782082244 13.1247574383  
Pt 5.6568335964 6.5708165995 13.1314953733  
Pt 8.4702994818 6.5782567380 13.1247137649  
Pt -0.0478567097 0.0558874339 15.5740061444  
Pt 2.8762927910 0.0558701883 15.5740063835  
Pt 5.6568217294 0.0772491908 15.4412255682  
Pt 1.4142054673 2.6851318859 15.4334892840  
Pt 4.2725376132 2.5344316762 15.4068312546  
Pt 7.0411761348 2.5344574826 15.4068942466  
Pt 2.8484649909 4.9992162652 15.4445068737  
Pt 5.6568947961 4.9357225139 15.4081416147  
Pt 8.4652421824 4.9992395267 15.4445561181  
C 1.4142232619 0.9961143441 16.5132296186  
H 1.4141584681 1.7442850997 17.3448248349  

