&CONTROL
   tprnfor          = .true.
   pseudo_dir       = '/users/kbadger1/espresso/pseudo/pslibrary.1.0.0/pbe/PSEUDOPOTENTIALS/'
/
&SYSTEM
   ecutwfc          = 40
   ecutrho          = 410
   nosym            = .true.
   occupations      = 'smearing'
   degauss          = 0.02
   smearing         = 'marzari-vanderbilt'
   nspin            = 1
   input_dft        = 'beef-vdw'
   ntyp             = 3
   nat              = 39
   ibrav            = 0
/
&ELECTRONS
   conv_thr         = 1e-08
   mixing_mode      = 'local-TF'
/
&IONS
/
&CELL
/
&FCP
/
&RISM
/
ATOMIC_SPECIES
Pt 195.084 Pt.pbe-n-kjpaw_psl.1.0.0.UPF
O 15.999 O.pbe-nl-kjpaw_psl.1.0.0.UPF
H 1.008 H.pbe-kjpaw_psl.1.0.0.UPF

K_POINTS automatic
5 5 1  0 0 0

CELL_PARAMETERS angstrom
8.48528137423857 0.00000000000000 0.00000000000000
4.24264068711929 7.34846922834953 0.00000000000000
0.00000000000000 0.00000000000000 23.92820323027551

ATOMIC_POSITIONS angstrom
Pt 0.0000000000 0.0000000000 8.5000000000   0 0 0
Pt 2.8284271247 0.0000000000 8.5000000000   0 0 0
Pt 5.6568542495 0.0000000000 8.5000000000   0 0 0
Pt 1.4142135624 2.4494897428 8.5000000000   0 0 0
Pt 4.2426406871 2.4494897428 8.5000000000   0 0 0
Pt 7.0710678119 2.4494897428 8.5000000000   0 0 0
Pt 2.8284271247 4.8989794856 8.5000000000   0 0 0
Pt 5.6568542495 4.8989794856 8.5000000000   0 0 0
Pt 8.4852813742 4.8989794856 8.5000000000   0 0 0
Pt 1.4142135624 0.8164965809 10.8094010768   0 0 0
Pt 4.2426406871 0.8164965809 10.8094010768   0 0 0
Pt 7.0710678119 0.8164965809 10.8094010768   0 0 0
Pt 2.8284271247 3.2659863237 10.8094010768   0 0 0
Pt 5.6568542495 3.2659863237 10.8094010768   0 0 0
Pt 8.4852813742 3.2659863237 10.8094010768   0 0 0
Pt 4.2426406871 5.7154760665 10.8094010768   0 0 0
Pt 7.0710678119 5.7154760665 10.8094010768   0 0 0
Pt 9.8994949366 5.7154760665 10.8094010768   0 0 0
Pt -0.0127478228 1.6507952694 13.0761575582  
Pt 2.8173236774 1.6594829160 13.1043185417  
Pt 5.6432923624 1.6444317595 13.1060976782  
Pt 1.3947278138 4.1082647078 13.0937627366  
Pt 4.2169212803 4.0757531280 13.1400804107  
Pt 7.0535157856 4.1077463166 13.0847725023  
Pt 2.8041012892 6.5540091437 13.0959589185  
Pt 5.6317544483 6.5479093271 13.0725110400  
Pt 8.4759620230 6.5595691485 13.1006816396  
Pt -0.0506685966 0.0525363359 15.4173686201  
Pt 2.7612613487 0.0296283402 15.3840939557  
Pt 5.6105222016 0.0468942446 15.5165497956  
Pt 1.3545847750 2.5039984184 15.4065807021  
Pt 4.1933522802 2.5427693805 15.4720404607  
Pt 7.0539837382 2.5089911711 15.3876196200  
Pt 2.7685013183 4.9831100904 15.4324904163  
Pt 5.6216028103 4.9711131219 15.4174759896  
Pt 8.4410854058 4.9551261035 15.4258447272  
O 4.4170467888 1.9297506543 17.5290102037  
H 5.0654677976 2.5643049373 17.8934228524  
H 5.0761074486 0.8805793082 17.0264061262  

