&CONTROL
   tprnfor          = .true.
   pseudo_dir       = '/users/kbadger1/espresso/pseudo/pslibrary.1.0.0/pbe/PSEUDOPOTENTIALS/'
/
&SYSTEM
   ecutwfc          = 40
   ecutrho          = 410
   nosym            = .true.
   occupations      = 'smearing'
   degauss          = 0.001
   smearing         = 'marzari-vanderbilt'
   nspin            = 1
   input_dft        = 'beef-vdw'
   ntyp             = 3
   nat              = 38
   ibrav            = 0
/
&ELECTRONS
   conv_thr         = 1e-08
   mixing_mode      = 'local-TF'
/
&IONS
/
&CELL
/
&FCP
/
&RISM
/
ATOMIC_SPECIES
Pt 195.084 Pt.pbe-n-kjpaw_psl.1.0.0.UPF
C 12.011 C.pbe-n-kjpaw_psl.1.0.0.UPF
H 1.008 H.pbe-kjpaw_psl.1.0.0.UPF

K_POINTS automatic
5 5 1  0 0 0

CELL_PARAMETERS angstrom
8.48528137423857 0.00000000000000 0.00000000000000
4.24264068711929 7.34846922834953 0.00000000000000
0.00000000000000 0.00000000000000 23.92820323027551

ATOMIC_POSITIONS angstrom
Pt 0.0000000000 0.0000000000 8.5000000000   0 0 0
Pt 2.8284271247 0.0000000000 8.5000000000   0 0 0
Pt 5.6568542495 0.0000000000 8.5000000000   0 0 0
Pt 1.4142135624 2.4494897428 8.5000000000   0 0 0
Pt 4.2426406871 2.4494897428 8.5000000000   0 0 0
Pt 7.0710678119 2.4494897428 8.5000000000   0 0 0
Pt 2.8284271247 4.8989794856 8.5000000000   0 0 0
Pt 5.6568542495 4.8989794856 8.5000000000   0 0 0
Pt 8.4852813742 4.8989794856 8.5000000000   0 0 0
Pt 1.4142135624 0.8164965809 10.8094010768   0 0 0
Pt 4.2426406871 0.8164965809 10.8094010768   0 0 0
Pt 7.0710678119 0.8164965809 10.8094010768   0 0 0
Pt 2.8284271247 3.2659863237 10.8094010768   0 0 0
Pt 5.6568542495 3.2659863237 10.8094010768   0 0 0
Pt 8.4852813742 3.2659863237 10.8094010768   0 0 0
Pt 4.2426406871 5.7154760665 10.8094010768   0 0 0
Pt 7.0710678119 5.7154760665 10.8094010768   0 0 0
Pt 9.8994949366 5.7154760665 10.8094010768   0 0 0
Pt 0.0103951752 1.6525748839 13.1294724433  
Pt 2.8180402571 1.6525811679 13.1294834727  
Pt 5.6568390400 1.6586157607 13.0857164731  
Pt 1.4142390405 4.0973025565 13.1374364592  
Pt 4.2378915089 4.1100659947 13.0840033741  
Pt 7.0757779188 4.1100741799 13.0839904610  
Pt 2.8428635444 6.5728308100 13.1257947457  
Pt 5.6568528720 6.5694799308 13.1281949882  
Pt 8.4708560333 6.5728526513 13.1257799635  
Pt -0.0687880029 0.0343318855 15.5686671672  
Pt 2.8972069384 0.0343461436 15.5686741754  
Pt 5.6568427626 0.0709087033 15.4443917835  
Pt 1.4141943634 2.6816415907 15.5257955970  
Pt 4.2733440099 2.5295507549 15.4010437740  
Pt 7.0403561816 2.5295751853 15.4010469146  
Pt 2.8469091416 4.9898744972 15.4424052706  
Pt 5.6568721922 4.9303090462 15.3988802314  
Pt 8.4667767430 4.9898598983 15.4424166250  
C 1.4142007193 0.9163395340 16.4844847198  
H 1.4141899405 1.9905814453 17.1865862807  

