ENCUT = 680.290000
SIGMA = 0.100000
ZAB_VDW = -1.886700
EDIFF = 1.00e-05
ALGO = Fast
GGA = BF
IBRION = -1
ISMEAR = 1
ISPIN = 1
ISYM = 0
LUSE_VDW = .TRUE.
LREAL = Auto
