Pt H 
 1.0000000000000000
     8.4683100000000007    0.0000000000000000    0.0000000000000000
     4.2341550000000012    7.3337715871217997    0.0000000000000000
     0.0000000000000000    0.0000000000000000   24.9656619900000010
 Pt  H  
  36   1
Selective dynamics
Cartesian
  0.0000000000000000  0.0000000000000000  8.5000000000000000   F   F   F
  2.8284271247461903  0.0000000000000000  8.5000000000000000   F   F   F
  5.6568542494923806  0.0000000000000000  8.5000000000000000   F   F   F
  1.4142135623730951  2.4494897427831779  8.5000000000000000   F   F   F
  4.2426406871192857  2.4494897427831779  8.5000000000000000   F   F   F
  7.0710678118654755  2.4494897427831779  8.5000000000000000   F   F   F
  2.8284271247461903  4.8989794855663558  8.5000000000000000   F   F   F
  5.6568542494923806  4.8989794855663558  8.5000000000000000   F   F   F
  8.4852813742385713  4.8989794855663558  8.5000000000000000   F   F   F
  1.4142135623730951  0.8164965809277259 10.8094010767585029   F   F   F
  4.2426406871192848  0.8164965809277259 10.8094010767585029   F   F   F
  7.0710678118654755  0.8164965809277259 10.8094010767585029   F   F   F
  2.8284271247461903  3.2659863237109037 10.8094010767585029   F   F   F
  5.6568542494923806  3.2659863237109037 10.8094010767585029   F   F   F
  8.4852813742385713  3.2659863237109037 10.8094010767585029   F   F   F
  4.2426406871192857  5.7154760664940820 10.8094010767585029   F   F   F
  7.0710678118654755  5.7154760664940820 10.8094010767585029   F   F   F
  9.8994949366116671  5.7154760664940820 10.8094010767585029   F   F   F
  0.0362898933470953  1.6521394762628128 13.1045160132771787   T   T   T
  2.8511169198395421  1.6470266165755170 13.1227785707480944   T   T   T
  5.6777339617213167  1.6463548397705494 13.0877249815295311   T   T   T
  1.4401552739809693  4.0817485220134220 13.1107619767991448   T   T   T
  4.2644801632106688  4.0945373187410805 13.0873971091257495   T   T   T
  7.0873820968759427  4.0932422335720036 13.0914950681574442   T   T   T
  2.8495457371463226  6.5348602308512564 13.0839355050435486   T   T   T
  5.6813404879428235  6.5417412292794479 13.1044521173206387   T   T   T
  8.4880591287926475  6.5412765856255612 13.1107016402507650   T   T   T
  0.0209230300041322  0.0138575551027008 15.4071041023174899   T   T   T
  2.8873822659540163  0.0164835369821000 15.5012570363103208   T   T   T
  5.6968566615280167  0.0269882734509577 15.4194747749616141   T   T   T
  1.4569093727594555  2.4935836886125178 15.5012499207529366   T   T   T
  4.3204616520346404  2.4961475184677395 15.4204153213430573   T   T   T
  7.1050942452375452  2.4726231495066591 15.4198957136501331   T   T   T
  2.8714092193356757  4.9217422699772300 15.4192806209096460   T   T   T
  5.6932809881616953  4.9196515635937343 15.4194297943290355   T   T   T
  8.5154150563150637  4.9168145679226507 15.4250717546300784   T   T   T
  2.3153606946221359  1.3377888867460364 16.5092126857883059   T   T   T
