&CONTROL
   tprnfor          = .true.
   pseudo_dir       = '/users/kbadger1/espresso/pseudo/pslibrary.1.0.0/pbe/PSEUDOPOTENTIALS/'
/
&SYSTEM
   ecutwfc          = 40
   ecutrho          = 410
   nosym            = .true.
   occupations      = 'smearing'
   degauss          = 0.001
   smearing         = 'marzari-vanderbilt'
   nspin            = 1
   input_dft        = 'beef-vdw'
   ntyp             = 3
   nat              = 39
   ibrav            = 0
/
&ELECTRONS
   conv_thr         = 1e-08
   mixing_mode      = 'local-TF'
/
&IONS
/
&CELL
/
&FCP
/
&RISM
/
ATOMIC_SPECIES
Pt 195.084 Pt.pbe-n-kjpaw_psl.1.0.0.UPF
O 15.999 O.pbe-nl-kjpaw_psl.1.0.0.UPF
H 1.008 H.pbe-kjpaw_psl.1.0.0.UPF

K_POINTS automatic
5 5 1  0 0 0

CELL_PARAMETERS angstrom
8.48528137423857 0.00000000000000 0.00000000000000
4.24264068711929 7.34846922834953 0.00000000000000
0.00000000000000 0.00000000000000 23.92820323027551

ATOMIC_POSITIONS angstrom
Pt 0.0000000000 0.0000000000 8.5000000000   0 0 0
Pt 2.8284271247 0.0000000000 8.5000000000   0 0 0
Pt 5.6568542495 0.0000000000 8.5000000000   0 0 0
Pt 1.4142135624 2.4494897428 8.5000000000   0 0 0
Pt 4.2426406871 2.4494897428 8.5000000000   0 0 0
Pt 7.0710678119 2.4494897428 8.5000000000   0 0 0
Pt 2.8284271247 4.8989794856 8.5000000000   0 0 0
Pt 5.6568542495 4.8989794856 8.5000000000   0 0 0
Pt 8.4852813742 4.8989794856 8.5000000000   0 0 0
Pt 1.4142135624 0.8164965809 10.8094010768   0 0 0
Pt 4.2426406871 0.8164965809 10.8094010768   0 0 0
Pt 7.0710678119 0.8164965809 10.8094010768   0 0 0
Pt 2.8284271247 3.2659863237 10.8094010768   0 0 0
Pt 5.6568542495 3.2659863237 10.8094010768   0 0 0
Pt 8.4852813742 3.2659863237 10.8094010768   0 0 0
Pt 4.2426406871 5.7154760665 10.8094010768   0 0 0
Pt 7.0710678119 5.7154760665 10.8094010768   0 0 0
Pt 9.8994949366 5.7154760665 10.8094010768   0 0 0
Pt -0.0258111055 1.6572611297 13.0824176218  
Pt 2.8167560958 1.6689477547 13.1356328084  
Pt 5.6107110281 1.6536118149 13.1681398756  
Pt 1.3910884502 4.1125500326 13.0940535857  
Pt 4.2182848612 4.0984824866 13.1276239587  
Pt 7.0502064549 4.1084310094 13.0908990460  
Pt 2.7949285719 6.5732642432 13.1073959913  
Pt 5.6346746095 6.5621514745 13.0802223846  
Pt 8.4720449148 6.5682575741 13.1260262386  
Pt -0.0333560783 0.0497459741 15.4260703444  
Pt 2.7737231924 0.0353305455 15.4213607494  
Pt 5.6246405027 0.0272095451 15.5646507831  
Pt 1.3511469452 2.5006464767 15.4070302794  
Pt 4.2187146141 2.5072157460 15.5558583809  
Pt 7.0474029490 2.4994924634 15.4191148980  
Pt 2.7807111177 4.9652362470 15.4126454266  
Pt 5.6274134351 4.9681159784 15.4141898162  
Pt 8.4379362174 4.9449585158 15.4302864460  
O 4.0235113315 2.5965681979 17.5560910556  
H 4.8557878461 2.9586250289 17.9036675914  
H 5.6321780265 -0.0387704473 17.1180634375  

