&CONTROL
   tprnfor          = .true.
   pseudo_dir       = '/users/kbadger1/espresso/pseudo/pslibrary.1.0.0/pbe/PSEUDOPOTENTIALS/'
/
&SYSTEM
   ecutwfc          = 40
   ecutrho          = 410
   nosym            = .true.
   occupations      = 'smearing'
   degauss          = 0.02
   smearing         = 'marzari-vanderbilt'
   nspin            = 1
   input_dft        = 'beef-vdw'
   ntyp             = 2
   nat              = 37
   ibrav            = 0
/
&ELECTRONS
   conv_thr         = 1e-08
   mixing_mode      = 'local-TF'
/
&IONS
/
&CELL
/
&FCP
/
&RISM
/
ATOMIC_SPECIES
Pt 195.084 Pt.pbe-n-kjpaw_psl.1.0.0.UPF
H 1.008 H.pbe-kjpaw_psl.1.0.0.UPF

K_POINTS automatic
5 5 1  0 0 0

CELL_PARAMETERS angstrom
8.48528137423857 0.00000000000000 0.00000000000000
4.24264068711929 7.34846922834953 0.00000000000000
0.00000000000000 0.00000000000000 23.92820323027551

ATOMIC_POSITIONS angstrom
Pt 0.0000000000 0.0000000000 8.5000000000   0 0 0
Pt 2.8284271247 0.0000000000 8.5000000000   0 0 0
Pt 5.6568542495 0.0000000000 8.5000000000   0 0 0
Pt 1.4142135624 2.4494897428 8.5000000000   0 0 0
Pt 4.2426406871 2.4494897428 8.5000000000   0 0 0
Pt 7.0710678119 2.4494897428 8.5000000000   0 0 0
Pt 2.8284271247 4.8989794856 8.5000000000   0 0 0
Pt 5.6568542495 4.8989794856 8.5000000000   0 0 0
Pt 8.4852813742 4.8989794856 8.5000000000   0 0 0
Pt 1.4142135624 0.8164965809 10.8094010768   0 0 0
Pt 4.2426406871 0.8164965809 10.8094010768   0 0 0
Pt 7.0710678119 0.8164965809 10.8094010768   0 0 0
Pt 2.8284271247 3.2659863237 10.8094010768   0 0 0
Pt 5.6568542495 3.2659863237 10.8094010768   0 0 0
Pt 8.4852813742 3.2659863237 10.8094010768   0 0 0
Pt 4.2426406871 5.7154760665 10.8094010768   0 0 0
Pt 7.0710678119 5.7154760665 10.8094010768   0 0 0
Pt 9.8994949366 5.7154760665 10.8094010768   0 0 0
Pt 0.0343367445 1.6298281118 13.1034033699  
Pt 2.8551324006 1.6208312571 13.1139378979  
Pt 5.6844358520 1.6245618031 13.0943661889  
Pt 1.4357028869 4.0583936105 13.1089197447  
Pt 4.2667470216 4.0725129796 13.0946966541  
Pt 7.0957628631 4.0730693863 13.0944073179  
Pt 2.8510895612 6.5217121304 13.0852988543  
Pt 5.6864797387 6.5272704757 13.1019835868  
Pt 8.5031302357 6.5231238048 13.1053355897  
Pt 0.0433455891 -0.0232548995 15.4121814936  
Pt 2.8952041232 -0.0229702388 15.4892212116  
Pt 5.7171274953 -0.0205218034 15.4248146871  
Pt 1.4689869169 2.4458390368 15.5055083738  
Pt 4.3360887531 2.4449228280 15.4386790461  
Pt 7.1280303500 2.4270183233 15.4233168627  
Pt 2.8838376339 4.8874785872 15.4150824936  
Pt 5.7135482913 4.8871496294 15.4232690578  
Pt 8.5406528748 4.8892186732 15.4245540909  
H 2.4023610065 1.6470268494 16.6105944682  

