&CONTROL
   tprnfor          = .true.
   pseudo_dir       = '/users/kbadger1/espresso/pseudo/pslibrary.1.0.0/pbe/PSEUDOPOTENTIALS/'
/
&SYSTEM
   ecutwfc          = 40
   ecutrho          = 410
   nosym            = .true.
   occupations      = 'smearing'
   degauss          = 0.02
   smearing         = 'marzari-vanderbilt'
   nspin            = 1
   input_dft        = 'beef-vdw'
   ntyp             = 2
   nat              = 37
   ibrav            = 0
/
&ELECTRONS
   mixing_mode      = 'local-TF'
/
&IONS
/
&CELL
/
&FCP
/
&RISM
/
ATOMIC_SPECIES
Pt 195.084 Pt.pbe-n-kjpaw_psl.1.0.0.UPF
H 1.008 H.pbe-kjpaw_psl.1.0.0.UPF

K_POINTS automatic
5 5 1  0 0 0

CELL_PARAMETERS angstrom
8.46831000000000 0.00000000000000 0.00000000000000
4.23415500000000 7.33377158712180 0.00000000000000
0.00000000000000 0.00000000000000 24.96566199000000

ATOMIC_POSITIONS angstrom
Pt 0.0000000000 0.0000000000 8.5000000000   0 0 0
Pt 2.8284271247 0.0000000000 8.5000000000   0 0 0
Pt 5.6568542495 0.0000000000 8.5000000000   0 0 0
Pt 1.4142135624 2.4494897428 8.5000000000   0 0 0
Pt 4.2426406871 2.4494897428 8.5000000000   0 0 0
Pt 7.0710678119 2.4494897428 8.5000000000   0 0 0
Pt 2.8284271247 4.8989794856 8.5000000000   0 0 0
Pt 5.6568542495 4.8989794856 8.5000000000   0 0 0
Pt 8.4852813742 4.8989794856 8.5000000000   0 0 0
Pt 1.4142135624 0.8164965809 10.8094010768   0 0 0
Pt 4.2426406871 0.8164965809 10.8094010768   0 0 0
Pt 7.0710678119 0.8164965809 10.8094010768   0 0 0
Pt 2.8284271247 3.2659863237 10.8094010768   0 0 0
Pt 5.6568542495 3.2659863237 10.8094010768   0 0 0
Pt 8.4852813742 3.2659863237 10.8094010768   0 0 0
Pt 4.2426406871 5.7154760665 10.8094010768   0 0 0
Pt 7.0710678119 5.7154760665 10.8094010768   0 0 0
Pt 9.8994949366 5.7154760665 10.8094010768   0 0 0
Pt 0.0143093477 1.6228987643 13.1055757789  
Pt 2.8325930533 1.6217808839 13.1028599410  
Pt 5.6580309958 1.6226145643 13.0912587706  
Pt 1.4242526338 4.0402300963 13.1354751087  
Pt 4.2457745603 4.0682256896 13.0930549408  
Pt 7.0704992457 4.0684866187 13.0922171009  
Pt 2.8358867617 6.5076275542 13.0988702736  
Pt 5.6585451101 6.5137095869 13.1004395667  
Pt 8.4830340140 6.5066611469 13.0953639042  
Pt -0.0051506957 -0.0362349256 15.4312831734  
Pt 2.8561043552 -0.0361118007 15.4292421907  
Pt 5.6590956081 -0.0201719308 15.4291391907  
Pt 1.4253828519 2.4163168677 15.5224910487  
Pt 4.2559070318 2.4260562126 15.4208745722  
Pt 7.0626995934 2.4262661908 15.4213142337  
Pt 2.8381236518 4.8697808200 15.4311843180  
Pt 5.6595104485 4.8638224319 15.4230404304  
Pt 8.4805545572 4.8700400610 15.4301218482  
H 1.4240685035 1.5609141616 16.8510003169  

