&CONTROL
   tprnfor          = .true.
   pseudo_dir       = '/users/kbadger1/espresso/pseudo/pslibrary.1.0.0/pbe/PSEUDOPOTENTIALS/'
/
&SYSTEM
   ecutwfc          = 40
   ecutrho          = 410
   nosym            = .true.
   occupations      = 'smearing'
   degauss          = 0.02
   smearing         = 'marzari-vanderbilt'
   nspin            = 1
   input_dft        = 'beef-vdw'
   ntyp             = 2
   nat              = 37
   ibrav            = 0
/
&ELECTRONS
   mixing_mode      = 'local-TF'
/
&IONS
/
&CELL
/
&FCP
/
&RISM
/
ATOMIC_SPECIES
Pt 195.084 Pt.pbe-n-kjpaw_psl.1.0.0.UPF
H 1.008 H.pbe-kjpaw_psl.1.0.0.UPF

K_POINTS automatic
5 5 1  0 0 0

CELL_PARAMETERS angstrom
8.48528137423857 0.00000000000000 0.00000000000000
4.24264068711929 7.34846922834953 0.00000000000000
0.00000000000000 0.00000000000000 23.92820323027551

ATOMIC_POSITIONS angstrom
Pt 0.0000000000 0.0000000000 8.5000000000   0 0 0
Pt 2.8284271247 0.0000000000 8.5000000000   0 0 0
Pt 5.6568542495 0.0000000000 8.5000000000   0 0 0
Pt 1.4142135624 2.4494897428 8.5000000000   0 0 0
Pt 4.2426406871 2.4494897428 8.5000000000   0 0 0
Pt 7.0710678119 2.4494897428 8.5000000000   0 0 0
Pt 2.8284271247 4.8989794856 8.5000000000   0 0 0
Pt 5.6568542495 4.8989794856 8.5000000000   0 0 0
Pt 8.4852813742 4.8989794856 8.5000000000   0 0 0
Pt 1.4142135624 0.8164965809 10.8094010768   0 0 0
Pt 4.2426406871 0.8164965809 10.8094010768   0 0 0
Pt 7.0710678119 0.8164965809 10.8094010768   0 0 0
Pt 2.8284271247 3.2659863237 10.8094010768   0 0 0
Pt 5.6568542495 3.2659863237 10.8094010768   0 0 0
Pt 8.4852813742 3.2659863237 10.8094010768   0 0 0
Pt 4.2426406871 5.7154760665 10.8094010768   0 0 0
Pt 7.0710678119 5.7154760665 10.8094010768   0 0 0
Pt 9.8994949366 5.7154760665 10.8094010768   0 0 0
Pt 0.0017818634 1.6170334647 13.0977323374  
Pt 2.8266379348 1.6171959440 13.0977112595  
Pt 5.6568508670 1.6180653810 13.0872914029  
Pt 1.4143742728 4.0378747121 13.1282855200  
Pt 4.2420326218 4.0679823220 13.0893109558  
Pt 7.0718256889 4.0679827360 13.0893468024  
Pt 2.8276047742 6.5112139233 13.0887602584  
Pt 5.6568751126 6.5192212931 13.0923625232  
Pt 8.4864842656 6.5110774879 13.0884815484  
Pt -0.0198913188 -0.0481370754 15.4184234497  
Pt 2.8486401347 -0.0480791206 15.4174446629  
Pt 5.6569522216 -0.0310011658 15.4173891191  
Pt 1.4137932468 2.4094252585 15.5081467588  
Pt 4.2506433601 2.4198389725 15.4118902895  
Pt 7.0625961007 2.4199249058 15.4116253068  
Pt 2.8293050066 4.8688473777 15.4196603217  
Pt 5.6568649709 4.8644955773 15.4129886980  
Pt 8.4846878881 4.8688287215 15.4195549491  
H 1.4038944748 1.5554447599 16.8382651548  

