Pt H 
 1.0000000000000000
     8.4683100000000007    0.0000000000000000    0.0000000000000000
     4.2341550000000012    7.3337715871217997    0.0000000000000000
     0.0000000000000000    0.0000000000000000   24.9656619900000010
 Pt  H  
  36   1
Selective dynamics
Cartesian
  0.0000000000000000  0.0000000000000000  8.5000000000000000   F   F   F
  2.8284271247461903  0.0000000000000000  8.5000000000000000   F   F   F
  5.6568542494923806  0.0000000000000000  8.5000000000000000   F   F   F
  1.4142135623730951  2.4494897427831779  8.5000000000000000   F   F   F
  4.2426406871192857  2.4494897427831779  8.5000000000000000   F   F   F
  7.0710678118654755  2.4494897427831779  8.5000000000000000   F   F   F
  2.8284271247461903  4.8989794855663558  8.5000000000000000   F   F   F
  5.6568542494923806  4.8989794855663558  8.5000000000000000   F   F   F
  8.4852813742385713  4.8989794855663558  8.5000000000000000   F   F   F
  1.4142135623730951  0.8164965809277259 10.8094010767585029   F   F   F
  4.2426406871192848  0.8164965809277259 10.8094010767585029   F   F   F
  7.0710678118654755  0.8164965809277259 10.8094010767585029   F   F   F
  2.8284271247461903  3.2659863237109037 10.8094010767585029   F   F   F
  5.6568542494923806  3.2659863237109037 10.8094010767585029   F   F   F
  8.4852813742385713  3.2659863237109037 10.8094010767585029   F   F   F
  4.2426406871192857  5.7154760664940820 10.8094010767585029   F   F   F
  7.0710678118654755  5.7154760664940820 10.8094010767585029   F   F   F
  9.8994949366116671  5.7154760664940820 10.8094010767585029   F   F   F
  0.0251658917943969  1.6426884077324237 13.1088513651872223   T   T   T
  2.8379869892130611  1.6387982429659236 13.1187841806196417   T   T   T
  5.6661491903051546  1.6396745844810114 13.0854582191229998   T   T   T
  1.4306976936733826  4.0755895524863508 13.1095010679614337   T   T   T
  4.2529549686548611  4.0872335508470847 13.0856099058579556   T   T   T
  7.0778984572169614  4.0867280929136971 13.0886188899215874   T   T   T
  2.8414185033342494  6.5298710139131471 13.0938668892693570   T   T   T
  5.6689744833683768  6.5344227211717092 13.1088973837637592   T   T   T
  8.4789479998987680  6.5353159546310575 13.1094552292767226   T   T   T
 -0.0089935846351528 -0.0049057216050369 15.4311655429460757   T   T   T
  2.8760780872509946 -0.0007947182815530 15.4910546512585476   T   T   T
  5.6740294713717638  0.0185547753560194 15.4249482603935171   T   T   T
  1.4370420543155988  2.4914359683434051 15.4911186923426527   T   T   T
  4.2845011063277347  2.4741047430323211 15.4140713648062135   T   T   T
  7.0766186420171531  2.4645553010164609 15.4171474731906084   T   T   T
  2.8527711379278515  4.9050376592687606 15.4249957405334701   T   T   T
  5.6725017222494678  4.8968542950470644 15.4173772867964392   T   T   T
  8.4949339834453639  4.9048454541179662 15.4239387515082029   T   T   T
  1.7760197930522932  1.0254838843822729 16.4366693766358551   T   T   T
