&CONTROL
   tprnfor          = .true.
   pseudo_dir       = '/users/kbadger1/espresso/pseudo/pslibrary.1.0.0/pbe/PSEUDOPOTENTIALS/'
/
&SYSTEM
   ecutwfc          = 40
   ecutrho          = 410
   nosym            = .true.
   occupations      = 'smearing'
   degauss          = 0.001
   smearing         = 'marzari-vanderbilt'
   nspin            = 1
   input_dft        = 'beef-vdw'
   ntyp             = 4
   nat              = 41
   ibrav            = 0
/
&ELECTRONS
   mixing_mode      = 'local-TF'
/
&IONS
/
&CELL
/
&FCP
/
&RISM
/
ATOMIC_SPECIES
Pt 195.084 Pt.pbe-n-kjpaw_psl.1.0.0.UPF
O 15.999 O.pbe-nl-kjpaw_psl.1.0.0.UPF
H 1.008 H.pbe-kjpaw_psl.1.0.0.UPF
C 12.011 C.pbe-n-kjpaw_psl.1.0.0.UPF

K_POINTS automatic
5 5 1  0 0 0

CELL_PARAMETERS angstrom
8.48528137423857 0.00000000000000 0.00000000000000
4.24264068711929 7.34846922834953 0.00000000000000
0.00000000000000 0.00000000000000 23.92820323027551

ATOMIC_POSITIONS angstrom
Pt 0.0000000000 0.0000000000 8.5000000000   0 0 0
Pt 2.8284271247 0.0000000000 8.5000000000   0 0 0
Pt 5.6568542495 0.0000000000 8.5000000000   0 0 0
Pt 1.4142135624 2.4494897428 8.5000000000   0 0 0
Pt 4.2426406871 2.4494897428 8.5000000000   0 0 0
Pt 7.0710678119 2.4494897428 8.5000000000   0 0 0
Pt 2.8284271247 4.8989794856 8.5000000000   0 0 0
Pt 5.6568542495 4.8989794856 8.5000000000   0 0 0
Pt 8.4852813742 4.8989794856 8.5000000000   0 0 0
Pt 1.4142135624 0.8164965809 10.8094010768   0 0 0
Pt 4.2426406871 0.8164965809 10.8094010768   0 0 0
Pt 7.0710678119 0.8164965809 10.8094010768   0 0 0
Pt 2.8284271247 3.2659863237 10.8094010768   0 0 0
Pt 5.6568542495 3.2659863237 10.8094010768   0 0 0
Pt 8.4852813742 3.2659863237 10.8094010768   0 0 0
Pt 4.2426406871 5.7154760665 10.8094010768   0 0 0
Pt 7.0710678119 5.7154760665 10.8094010768   0 0 0
Pt 9.8994949366 5.7154760665 10.8094010768   0 0 0
Pt 0.0039900355 1.6614217858 13.1069732874  
Pt 2.8316920247 1.6705596169 13.1412939443  
Pt 5.6299457821 1.6900455882 13.1537704959  
Pt 1.4537470070 4.1381405672 13.1849879506  
Pt 4.2377400085 4.0899122460 13.1383274046  
Pt 7.1041610691 4.1004278652 13.0854828257  
Pt 2.8179698027 6.5739077955 13.0832297830  
Pt 5.6509603798 6.5642986781 13.0718269428  
Pt 8.4747566997 6.5593457283 13.0978375218  
Pt -0.0116686864 0.1103412209 15.4051581539  
Pt 2.7965575409 0.0307029012 15.4291636402  
Pt 5.6339344241 0.0426911022 15.4139864674  
Pt 1.3611817776 2.4831876978 15.4585445264  
Pt 4.2457557559 2.4722113489 15.6189915561  
Pt 7.0884004852 2.4953846652 15.4771539325  
Pt 2.7355664199 4.9264563684 15.4502073679  
Pt 5.7588732385 4.9079363059 15.3216844321  
Pt 8.4641154676 4.9497990835 15.4749486657  
O 3.9100083358 5.5959995166 17.0939817417  
H 3.3763792754 5.5712861505 17.9020648650  
H 4.8016711266 3.1435989035 18.0750240235  
H 3.2208047722 2.1755620384 18.0188695444  
C 4.0659345450 2.6039707625 17.4819351358  

