&CONTROL
   tprnfor          = .true.
   pseudo_dir       = '/users/kbadger1/espresso/pseudo/pslibrary.1.0.0/pbe/PSEUDOPOTENTIALS/'
/
&SYSTEM
   ecutwfc          = 40
   ecutrho          = 410
   nosym            = .true.
   occupations      = 'smearing'
   degauss          = 0.02
   smearing         = 'marzari-vanderbilt'
   nspin            = 1
   input_dft        = 'beef-vdw'
   ntyp             = 2
   nat              = 37
   ibrav            = 0
/
&ELECTRONS
   mixing_mode      = 'local-TF'
/
&IONS
/
&CELL
/
&FCP
/
&RISM
/
ATOMIC_SPECIES
Pt 195.084 Pt.pbe-n-kjpaw_psl.1.0.0.UPF
H 1.008 H.pbe-kjpaw_psl.1.0.0.UPF

K_POINTS automatic
5 5 1  0 0 0

CELL_PARAMETERS angstrom
8.46831000000000 0.00000000000000 0.00000000000000
4.23415500000000 7.33377158712180 0.00000000000000
0.00000000000000 0.00000000000000 24.96566199000000

ATOMIC_POSITIONS angstrom
Pt 0.0000000000 0.0000000000 8.5000000000   0 0 0
Pt 2.8284271247 0.0000000000 8.5000000000   0 0 0
Pt 5.6568542495 0.0000000000 8.5000000000   0 0 0
Pt 1.4142135624 2.4494897428 8.5000000000   0 0 0
Pt 4.2426406871 2.4494897428 8.5000000000   0 0 0
Pt 7.0710678119 2.4494897428 8.5000000000   0 0 0
Pt 2.8284271247 4.8989794856 8.5000000000   0 0 0
Pt 5.6568542495 4.8989794856 8.5000000000   0 0 0
Pt 8.4852813742 4.8989794856 8.5000000000   0 0 0
Pt 1.4142135624 0.8164965809 10.8094010768   0 0 0
Pt 4.2426406871 0.8164965809 10.8094010768   0 0 0
Pt 7.0710678119 0.8164965809 10.8094010768   0 0 0
Pt 2.8284271247 3.2659863237 10.8094010768   0 0 0
Pt 5.6568542495 3.2659863237 10.8094010768   0 0 0
Pt 8.4852813742 3.2659863237 10.8094010768   0 0 0
Pt 4.2426406871 5.7154760665 10.8094010768   0 0 0
Pt 7.0710678119 5.7154760665 10.8094010768   0 0 0
Pt 9.8994949366 5.7154760665 10.8094010768   0 0 0
Pt 0.0211023592 1.6217980672 13.1158045963  
Pt 2.8257146339 1.6207477335 13.1129654099  
Pt 5.6579587900 1.6184225803 13.0904472056  
Pt 1.4241393595 4.0438600374 13.1244970080  
Pt 4.2450451367 4.0613087758 13.0947338366  
Pt 7.0709054529 4.0615963214 13.0940227856  
Pt 2.8364596792 6.5032718862 13.0955881373  
Pt 5.6584476028 6.5064361759 13.0971366026  
Pt 8.4822127154 6.5024073799 13.0921036636  
Pt 0.0066940625 -0.0429734310 15.4228408538  
Pt 2.8436133623 -0.0428270970 15.4208568856  
Pt 5.6587167084 -0.0364943843 15.4239003757  
Pt 1.4249384998 2.3975973642 15.5588114167  
Pt 4.2516494777 2.4063397284 15.4220521773  
Pt 7.0662270707 2.4064996514 15.4227384291  
Pt 2.8353512721 4.8542891162 15.4282019068  
Pt 5.6591137205 4.8510169169 15.4216123431  
Pt 8.4826462746 4.8545294880 15.4271319959  
H 1.4265053012 2.2407493344 17.1070399125  

