&CONTROL
   tprnfor          = .true.
   pseudo_dir       = '/users/kbadger1/espresso/pseudo/pslibrary.1.0.0/pbe/PSEUDOPOTENTIALS/'
/
&SYSTEM
   ecutwfc          = 40
   ecutrho          = 410
   nosym            = .true.
   occupations      = 'smearing'
   degauss          = 0.02
   smearing         = 'marzari-vanderbilt'
   nspin            = 1
   input_dft        = 'beef-vdw'
   ntyp             = 2
   nat              = 37
   ibrav            = 0
/
&ELECTRONS
   conv_thr         = 1e-08
   mixing_mode      = 'local-TF'
/
&IONS
/
&CELL
/
&FCP
/
&RISM
/
ATOMIC_SPECIES
Pt 195.084 Pt.pbe-n-kjpaw_psl.1.0.0.UPF
H 1.008 H.pbe-kjpaw_psl.1.0.0.UPF

K_POINTS automatic
5 5 1  0 0 0

CELL_PARAMETERS angstrom
8.48528137423857 0.00000000000000 0.00000000000000
4.24264068711929 7.34846922834953 0.00000000000000
0.00000000000000 0.00000000000000 23.92820323027551

ATOMIC_POSITIONS angstrom
Pt 0.0000000000 0.0000000000 8.5000000000   0 0 0
Pt 2.8284271247 0.0000000000 8.5000000000   0 0 0
Pt 5.6568542495 0.0000000000 8.5000000000   0 0 0
Pt 1.4142135624 2.4494897428 8.5000000000   0 0 0
Pt 4.2426406871 2.4494897428 8.5000000000   0 0 0
Pt 7.0710678119 2.4494897428 8.5000000000   0 0 0
Pt 2.8284271247 4.8989794856 8.5000000000   0 0 0
Pt 5.6568542495 4.8989794856 8.5000000000   0 0 0
Pt 8.4852813742 4.8989794856 8.5000000000   0 0 0
Pt 1.4142135624 0.8164965809 10.8094010768   0 0 0
Pt 4.2426406871 0.8164965809 10.8094010768   0 0 0
Pt 7.0710678119 0.8164965809 10.8094010768   0 0 0
Pt 2.8284271247 3.2659863237 10.8094010768   0 0 0
Pt 5.6568542495 3.2659863237 10.8094010768   0 0 0
Pt 8.4852813742 3.2659863237 10.8094010768   0 0 0
Pt 4.2426406871 5.7154760665 10.8094010768   0 0 0
Pt 7.0710678119 5.7154760665 10.8094010768   0 0 0
Pt 9.8994949366 5.7154760665 10.8094010768   0 0 0
Pt 0.0087593425 1.6169825613 13.1089516323  
Pt 2.8194617187 1.6170405180 13.1090157031  
Pt 5.6567909660 1.6143487798 13.0882695945  
Pt 1.4141555700 4.0432939307 13.1187089476  
Pt 4.2414589657 4.0619040224 13.0918840375  
Pt 7.0721111376 4.0618898902 13.0917666433  
Pt 2.8283595111 6.5081356775 13.0870440528  
Pt 5.6567632130 6.5123463242 13.0909818155  
Pt 8.4852299829 6.5081714416 13.0869960642  
Pt -0.0075550823 -0.0522419090 15.4123052797  
Pt 2.8356988211 -0.0521964106 15.4123988332  
Pt 5.6566867830 -0.0461238043 15.4154224241  
Pt 1.4139449912 2.3940747002 15.5463181767  
Pt 4.2466351576 2.4022841063 15.4152985594  
Pt 7.0666851170 2.4023384234 15.4152304563  
Pt 2.8272767015 4.8561930441 15.4190672925  
Pt 5.6567407583 4.8522862989 15.4145294969  
Pt 8.4860523463 4.8562166569 15.4190782634  
H 1.4128307484 2.2335603492 17.0942959289  

