&CONTROL
   tprnfor          = .true.
   pseudo_dir       = '/users/kbadger1/espresso/pseudo/pslibrary.1.0.0/pbe/PSEUDOPOTENTIALS/'
/
&SYSTEM
   ecutwfc          = 40
   ecutrho          = 410
   nosym            = .true.
   occupations      = 'smearing'
   degauss          = 0.001
   smearing         = 'marzari-vanderbilt'
   nspin            = 1
   input_dft        = 'beef-vdw'
   ntyp             = 3
   nat              = 38
   ibrav            = 0
/
&ELECTRONS
   mixing_mode      = 'local-TF'
/
&IONS
/
&CELL
/
&FCP
/
&RISM
/
ATOMIC_SPECIES
Pt 195.084 Pt.pbe-n-kjpaw_psl.1.0.0.UPF
C 12.011 C.pbe-n-kjpaw_psl.1.0.0.UPF
H 1.008 H.pbe-kjpaw_psl.1.0.0.UPF

K_POINTS automatic
5 5 1  0 0 0

CELL_PARAMETERS angstrom
8.48528137423857 0.00000000000000 0.00000000000000
4.24264068711929 7.34846922834953 0.00000000000000
0.00000000000000 0.00000000000000 23.92820323027551

ATOMIC_POSITIONS angstrom
Pt 0.0000000000 0.0000000000 8.5000000000   0 0 0
Pt 2.8284271247 0.0000000000 8.5000000000   0 0 0
Pt 5.6568542495 0.0000000000 8.5000000000   0 0 0
Pt 1.4142135624 2.4494897428 8.5000000000   0 0 0
Pt 4.2426406871 2.4494897428 8.5000000000   0 0 0
Pt 7.0710678119 2.4494897428 8.5000000000   0 0 0
Pt 2.8284271247 4.8989794856 8.5000000000   0 0 0
Pt 5.6568542495 4.8989794856 8.5000000000   0 0 0
Pt 8.4852813742 4.8989794856 8.5000000000   0 0 0
Pt 1.4142135624 0.8164965809 10.8094010768   0 0 0
Pt 4.2426406871 0.8164965809 10.8094010768   0 0 0
Pt 7.0710678119 0.8164965809 10.8094010768   0 0 0
Pt 2.8284271247 3.2659863237 10.8094010768   0 0 0
Pt 5.6568542495 3.2659863237 10.8094010768   0 0 0
Pt 8.4852813742 3.2659863237 10.8094010768   0 0 0
Pt 4.2426406871 5.7154760665 10.8094010768   0 0 0
Pt 7.0710678119 5.7154760665 10.8094010768   0 0 0
Pt 9.8994949366 5.7154760665 10.8094010768   0 0 0
Pt 0.0070927752 1.6290304991 13.1378085712  
Pt 2.8213617732 1.6289683688 13.1376800058  
Pt 5.6569024912 1.6307744437 13.0949237349  
Pt 1.4143005899 4.0671468606 13.1211101954  
Pt 4.2406340384 4.0836849339 13.0948814078  
Pt 7.0729936144 4.0836375322 13.0947550145  
Pt 2.8418352008 6.5397318358 13.1212159227  
Pt 5.6568858794 6.5401899477 13.1376779425  
Pt 8.4720078390 6.5397264300 13.1211431087  
Pt -0.0411341289 -0.0236296086 15.5820132487  
Pt 2.8697708346 -0.0237795060 15.5819765572  
Pt 5.6569296180 0.0028578765 15.4353581695  
Pt 1.4142953336 2.4972681995 15.5820416737  
Pt 4.2692841816 2.4649266500 15.4222328420  
Pt 7.0444876426 2.4649269029 15.4223911297  
Pt 2.8308854803 4.8977227301 15.4353403795  
Pt 5.6567921186 4.8683719244 15.4221657310  
Pt 8.4829125667 4.8976368918 15.4350347371  
C 1.4143925774 0.8165971015 16.6576494073  
H 1.4144308610 0.8166258730 17.7514745588  

