Pt H 
 1.0000000000000000
     8.4683100000000007    0.0000000000000000    0.0000000000000000
     4.2341550000000012    7.3337715871217997    0.0000000000000000
     0.0000000000000000    0.0000000000000000   24.9656619900000010
 Pt  H  
  36   1
Selective dynamics
Cartesian
  0.0000000000000000  0.0000000000000000  8.5000000000000000   F   F   F
  2.8284271247461903  0.0000000000000000  8.5000000000000000   F   F   F
  5.6568542494923806  0.0000000000000000  8.5000000000000000   F   F   F
  1.4142135623730951  2.4494897427831779  8.5000000000000000   F   F   F
  4.2426406871192857  2.4494897427831779  8.5000000000000000   F   F   F
  7.0710678118654755  2.4494897427831779  8.5000000000000000   F   F   F
  2.8284271247461903  4.8989794855663558  8.5000000000000000   F   F   F
  5.6568542494923806  4.8989794855663558  8.5000000000000000   F   F   F
  8.4852813742385713  4.8989794855663558  8.5000000000000000   F   F   F
  1.4142135623730951  0.8164965809277259 10.8094010767585029   F   F   F
  4.2426406871192848  0.8164965809277259 10.8094010767585029   F   F   F
  7.0710678118654755  0.8164965809277259 10.8094010767585029   F   F   F
  2.8284271247461903  3.2659863237109037 10.8094010767585029   F   F   F
  5.6568542494923806  3.2659863237109037 10.8094010767585029   F   F   F
  8.4852813742385713  3.2659863237109037 10.8094010767585029   F   F   F
  4.2426406871192857  5.7154760664940820 10.8094010767585029   F   F   F
  7.0710678118654755  5.7154760664940820 10.8094010767585029   F   F   F
  9.8994949366116671  5.7154760664940820 10.8094010767585029   F   F   F
  0.0399105634227739  1.6462376778876409 13.1252647611916924   T   T   T
  2.8510557284542015  1.6329884270397326 13.1072558166105058   T   T   T
  5.6759226577880808  1.6353440437940563 13.0903062655264435   T   T   T
  1.4357154867936404  4.0642778904144237 13.1218662786700655   T   T   T
  4.2603429528759040  4.0774281930504301 13.0924890502020439   T   T   T
  7.0854460748013421  4.0801856019903751 13.0932983623174195   T   T   T
  2.8534022629590452  6.5239857607094560 13.0900633040782655   T   T   T
  5.6746254289769427  6.5253046949042304 13.0963380064603676   T   T   T
  8.4971583939857407  6.5228253811736563 13.0923890110948964   T   T   T
  0.0345405427654277 -0.0051345478619935 15.4193939130756998   T   T   T
  2.8770102293951672 -0.0221798941104880 15.4322976760926256   T   T   T
  5.6907606511799091 -0.0008487555678783 15.4219513501880083   T   T   T
  1.4763536925747744  2.4302910819621348 15.5233995928864026   T   T   T
  4.3025629405720656  2.4465795272032271 15.4306815480620401   T   T   T
  7.0980220466952835  2.4440704923322971 15.4239901305132445   T   T   T
  2.8656072766132983  4.8980873477308888 15.4163310540566449   T   T   T
  5.6903498557275558  4.8885973419701214 15.4161939007309137   T   T   T
  8.5128073942176812  4.8936832602058624 15.4242549612954534   T   T   T
  2.2092679331758149  2.0330521599512101 16.8581732628808716   T   T   T
