&CONTROL
   tprnfor          = .true.
   pseudo_dir       = '/users/kbadger1/espresso/pseudo/pslibrary.1.0.0/pbe/PSEUDOPOTENTIALS/'
/
&SYSTEM
   ecutwfc          = 40
   ecutrho          = 410
   nosym            = .true.
   occupations      = 'smearing'
   degauss          = 0.02
   smearing         = 'marzari-vanderbilt'
   nspin            = 1
   input_dft        = 'beef-vdw'
   ntyp             = 3
   nat              = 39
   ibrav            = 0
/
&ELECTRONS
   mixing_mode      = 'local-TF'
/
&IONS
/
&CELL
/
&FCP
/
&RISM
/
ATOMIC_SPECIES
Pt 195.084 Pt.pbe-n-kjpaw_psl.1.0.0.UPF
O 15.999 O.pbe-nl-kjpaw_psl.1.0.0.UPF
H 1.008 H.pbe-kjpaw_psl.1.0.0.UPF

K_POINTS automatic
5 5 1  0 0 0

CELL_PARAMETERS angstrom
8.48528137423857 0.00000000000000 0.00000000000000
4.24264068711929 7.34846922834953 0.00000000000000
0.00000000000000 0.00000000000000 23.92820323027551

ATOMIC_POSITIONS angstrom
Pt 0.0000000000 0.0000000000 8.5000000000   0 0 0
Pt 2.8284271247 0.0000000000 8.5000000000   0 0 0
Pt 5.6568542495 0.0000000000 8.5000000000   0 0 0
Pt 1.4142135624 2.4494897428 8.5000000000   0 0 0
Pt 4.2426406871 2.4494897428 8.5000000000   0 0 0
Pt 7.0710678119 2.4494897428 8.5000000000   0 0 0
Pt 2.8284271247 4.8989794856 8.5000000000   0 0 0
Pt 5.6568542495 4.8989794856 8.5000000000   0 0 0
Pt 8.4852813742 4.8989794856 8.5000000000   0 0 0
Pt 1.4142135624 0.8164965809 10.8094010768   0 0 0
Pt 4.2426406871 0.8164965809 10.8094010768   0 0 0
Pt 7.0710678119 0.8164965809 10.8094010768   0 0 0
Pt 2.8284271247 3.2659863237 10.8094010768   0 0 0
Pt 5.6568542495 3.2659863237 10.8094010768   0 0 0
Pt 8.4852813742 3.2659863237 10.8094010768   0 0 0
Pt 4.2426406871 5.7154760665 10.8094010768   0 0 0
Pt 7.0710678119 5.7154760665 10.8094010768   0 0 0
Pt 9.8994949366 5.7154760665 10.8094010768   0 0 0
Pt -0.0171709651 1.6496824416 13.0745854434  
Pt 2.8125521044 1.6582105562 13.0982980860  
Pt 5.6401586378 1.6442797123 13.1021791712  
Pt 1.3915763013 4.1103850352 13.0939259615  
Pt 4.2147981411 4.0761397765 13.1354282968  
Pt 7.0499927633 4.1065677784 13.0855533450  
Pt 2.8082649696 6.5505554023 13.0894071205  
Pt 5.6288766800 6.5490394721 13.0731435243  
Pt 8.4705870018 6.5577841078 13.0964115234  
Pt -0.0556094972 0.0548044093 15.4197714005  
Pt 2.7572820622 0.0296845386 15.3833811503  
Pt 5.6180454481 0.0273077751 15.4555511593  
Pt 1.3497584977 2.5073880397 15.4006077623  
Pt 4.1807803198 2.5528002056 15.4349444836  
Pt 7.0479337786 2.5072774266 15.3887992854  
Pt 2.7630216937 4.9824457021 15.4339702512  
Pt 5.6167582538 4.9735594025 15.4170835202  
Pt 8.4368486060 4.9549711008 15.4277033320  
O 4.4493277826 1.8686717882 17.5509890488  
H 5.0682631447 2.5342428580 17.9103189099  
H 5.0042457565 1.0345946229 17.1553284202  

