Pt H 
 1.0000000000000000
     8.4683100000000007    0.0000000000000000    0.0000000000000000
     4.2341550000000012    7.3337715871217997    0.0000000000000000
     0.0000000000000000    0.0000000000000000   24.9656619900000010
 Pt  H  
  36   1
Selective dynamics
Cartesian
  0.0000000000000000  0.0000000000000000  8.5000000000000000   F   F   F
  2.8284271247461903  0.0000000000000000  8.5000000000000000   F   F   F
  5.6568542494923806  0.0000000000000000  8.5000000000000000   F   F   F
  1.4142135623730951  2.4494897427831779  8.5000000000000000   F   F   F
  4.2426406871192857  2.4494897427831779  8.5000000000000000   F   F   F
  7.0710678118654755  2.4494897427831779  8.5000000000000000   F   F   F
  2.8284271247461903  4.8989794855663558  8.5000000000000000   F   F   F
  5.6568542494923806  4.8989794855663558  8.5000000000000000   F   F   F
  8.4852813742385713  4.8989794855663558  8.5000000000000000   F   F   F
  1.4142135623730951  0.8164965809277259 10.8094010767585029   F   F   F
  4.2426406871192848  0.8164965809277259 10.8094010767585029   F   F   F
  7.0710678118654755  0.8164965809277259 10.8094010767585029   F   F   F
  2.8284271247461903  3.2659863237109037 10.8094010767585029   F   F   F
  5.6568542494923806  3.2659863237109037 10.8094010767585029   F   F   F
  8.4852813742385713  3.2659863237109037 10.8094010767585029   F   F   F
  4.2426406871192857  5.7154760664940820 10.8094010767585029   F   F   F
  7.0710678118654755  5.7154760664940820 10.8094010767585029   F   F   F
  9.8994949366116671  5.7154760664940820 10.8094010767585029   F   F   F
  0.0143963989311712  1.6474996093696119 13.1075967010361811   T   T   T
  2.8281336996777746  1.6426430976999857 13.1193715054932500   T   T   T
  5.6438178882197612  1.6443830191723006 13.1038365012138733   T   T   T
  1.4221947533231740  4.0802307818806982 13.1098674664710071   T   T   T
  4.2380023182827511  4.0791223578904283 13.1076077200098506   T   T   T
  7.0629094641837362  4.0817002024884728 13.0865218895090614   T   T   T
  2.8300530831189969  6.5302555665096094 13.0932389748464413   T   T   T
  5.6498564965162963  6.5275046114607793 13.0873684709686238   T   T   T
  8.4764809569206143  6.5267261835083890 13.0879111987547194   T   T   T
  0.0005730262063477  0.0038014165631715 15.4236680601739948   T   T   T
  2.8220257305681646 -0.0181125143395932 15.4145052276938905   T   T   T
  5.6446461030398618  0.0025568352998992 15.4225713829238291   T   T   T
  1.3850644025747789  2.4367766869208558 15.4918652643998787   T   T   T
  4.2680145248740997  2.4337015777918833 15.4862670744317708   T   T   T
  7.0590994259287250  2.4516214889160319 15.4238771063084492   T   T   T
  2.8230405322323322  4.9336663069718956 15.4361477110334899   T   T   T
  5.6532867580018831  4.9008590483170007 15.4152403571058692   T   T   T
  8.4590208650018184  4.8999374896554491 15.4151971450260756   T   T   T
  2.8230572272469403  2.9320874756012842 16.4096657060851605   T   T   T
