&CONTROL
   tprnfor          = .true.
   pseudo_dir       = '/users/kbadger1/espresso/pseudo/pslibrary.1.0.0/pbe/PSEUDOPOTENTIALS/'
/
&SYSTEM
   ecutwfc          = 40
   ecutrho          = 410
   nosym            = .true.
   occupations      = 'smearing'
   degauss          = 0.02
   smearing         = 'marzari-vanderbilt'
   nspin            = 1
   input_dft        = 'beef-vdw'
   ntyp             = 2
   nat              = 37
   ibrav            = 0
/
&ELECTRONS
   mixing_mode      = 'local-TF'
/
&IONS
/
&CELL
/
&FCP
/
&RISM
/
ATOMIC_SPECIES
Pt 195.084 Pt.pbe-n-kjpaw_psl.1.0.0.UPF
H 1.008 H.pbe-kjpaw_psl.1.0.0.UPF

K_POINTS automatic
5 5 1  0 0 0

CELL_PARAMETERS angstrom
8.46831000000000 0.00000000000000 0.00000000000000
4.23415500000000 7.33377158712180 0.00000000000000
0.00000000000000 0.00000000000000 24.96566199000000

ATOMIC_POSITIONS angstrom
Pt 0.0000000000 0.0000000000 8.5000000000   0 0 0
Pt 2.8284271247 0.0000000000 8.5000000000   0 0 0
Pt 5.6568542495 0.0000000000 8.5000000000   0 0 0
Pt 1.4142135624 2.4494897428 8.5000000000   0 0 0
Pt 4.2426406871 2.4494897428 8.5000000000   0 0 0
Pt 7.0710678119 2.4494897428 8.5000000000   0 0 0
Pt 2.8284271247 4.8989794856 8.5000000000   0 0 0
Pt 5.6568542495 4.8989794856 8.5000000000   0 0 0
Pt 8.4852813742 4.8989794856 8.5000000000   0 0 0
Pt 1.4142135624 0.8164965809 10.8094010768   0 0 0
Pt 4.2426406871 0.8164965809 10.8094010768   0 0 0
Pt 7.0710678119 0.8164965809 10.8094010768   0 0 0
Pt 2.8284271247 3.2659863237 10.8094010768   0 0 0
Pt 5.6568542495 3.2659863237 10.8094010768   0 0 0
Pt 8.4852813742 3.2659863237 10.8094010768   0 0 0
Pt 4.2426406871 5.7154760665 10.8094010768   0 0 0
Pt 7.0710678119 5.7154760665 10.8094010768   0 0 0
Pt 9.8994949366 5.7154760665 10.8094010768   0 0 0
Pt 0.0432950946 1.6325985317 13.1259780190  
Pt 2.8475403266 1.6217913895 13.1132868715  
Pt 5.6654019882 1.6247361032 13.1089777356  
Pt 1.4375236022 4.0546662601 13.1065865689  
Pt 4.2565689773 4.0559787454 13.1034814195  
Pt 7.0857423170 4.0608239650 13.0893556209  
Pt 2.8511206578 6.5127610686 13.0914008890  
Pt 5.6695417562 6.5043707330 13.0937204022  
Pt 8.4978073519 6.5017360705 13.0919262634  
Pt 0.0413265771 -0.0445587236 15.4280228294  
Pt 2.8687214430 -0.0749039649 15.4172988712  
Pt 5.6883349582 -0.0428657765 15.4288730007  
Pt 1.4484973315 2.3888108531 15.5308545439  
Pt 4.2810118525 2.3948977848 15.4981125058  
Pt 7.0927984335 2.4020753142 15.4316012959  
Pt 2.8645289103 4.8735486314 15.4170080352  
Pt 5.6879932041 4.8414307822 15.4244871073  
Pt 8.5135758910 4.8449522133 15.4238468680  
H 2.5929258760 2.4646263705 16.6954853392  

