&CONTROL
   tprnfor          = .true.
   pseudo_dir       = '/users/kbadger1/espresso/pseudo/pslibrary.1.0.0/pbe/PSEUDOPOTENTIALS/'
/
&SYSTEM
   ecutwfc          = 40
   ecutrho          = 410
   nosym            = .true.
   occupations      = 'smearing'
   degauss          = 0.001
   smearing         = 'marzari-vanderbilt'
   nspin            = 1
   input_dft        = 'beef-vdw'
   ntyp             = 3
   nat              = 39
   ibrav            = 0
/
&ELECTRONS
   mixing_mode      = 'local-TF'
/
&IONS
/
&CELL
/
&FCP
/
&RISM
/
ATOMIC_SPECIES
Pt 195.084 Pt.pbe-n-kjpaw_psl.1.0.0.UPF
O 15.999 O.pbe-nl-kjpaw_psl.1.0.0.UPF
H 1.008 H.pbe-kjpaw_psl.1.0.0.UPF

K_POINTS automatic
5 5 1  0 0 0

CELL_PARAMETERS angstrom
8.48528137423857 0.00000000000000 0.00000000000000
4.24264068711929 7.34846922834953 0.00000000000000
0.00000000000000 0.00000000000000 23.92820323027551

ATOMIC_POSITIONS angstrom
Pt 0.0000000000 0.0000000000 8.5000000000   0 0 0
Pt 2.8284271247 0.0000000000 8.5000000000   0 0 0
Pt 5.6568542495 0.0000000000 8.5000000000   0 0 0
Pt 1.4142135624 2.4494897428 8.5000000000   0 0 0
Pt 4.2426406871 2.4494897428 8.5000000000   0 0 0
Pt 7.0710678119 2.4494897428 8.5000000000   0 0 0
Pt 2.8284271247 4.8989794856 8.5000000000   0 0 0
Pt 5.6568542495 4.8989794856 8.5000000000   0 0 0
Pt 8.4852813742 4.8989794856 8.5000000000   0 0 0
Pt 1.4142135624 0.8164965809 10.8094010768   0 0 0
Pt 4.2426406871 0.8164965809 10.8094010768   0 0 0
Pt 7.0710678119 0.8164965809 10.8094010768   0 0 0
Pt 2.8284271247 3.2659863237 10.8094010768   0 0 0
Pt 5.6568542495 3.2659863237 10.8094010768   0 0 0
Pt 8.4852813742 3.2659863237 10.8094010768   0 0 0
Pt 4.2426406871 5.7154760665 10.8094010768   0 0 0
Pt 7.0710678119 5.7154760665 10.8094010768   0 0 0
Pt 9.8994949366 5.7154760665 10.8094010768   0 0 0
Pt -0.0686550952 1.6767277921 13.0980140591  
Pt 2.7604401806 1.6830452297 13.1106922289  
Pt 5.5860070785 1.6785264368 13.1061111200  
Pt 1.3408302545 4.1303387264 13.1092652481  
Pt 4.1685932072 4.1178731593 13.1212684638  
Pt 6.9983844800 4.1301728130 13.1049291203  
Pt 2.7626359735 6.5733872077 13.0969261338  
Pt 5.5823523456 6.5753990745 13.0976706468  
Pt 8.4123399335 6.5766748040 13.1013888348  
Pt -0.1437931676 0.0934943597 15.4421283580  
Pt 2.6786915896 0.0792272933 15.4269310145  
Pt 5.5210090146 0.0750665669 15.4237905059  
Pt 1.2575547075 2.5435262125 15.4402597414  
Pt 4.0891555666 2.5554440321 15.4558930530  
Pt 6.9410028338 2.5458673923 15.4310612107  
Pt 2.6777037345 5.0041070371 15.4485908005  
Pt 5.5200504197 5.0014854619 15.4443859543  
Pt 8.3399640693 4.9921705797 15.4507234060  
O 4.2990028996 2.1882503052 17.9538222437  
H 5.0904262566 2.7125159497 18.1533932748  
H 4.6265822022 1.2773797114 17.8548384220  

