&CONTROL
   tprnfor          = .true.
   pseudo_dir       = '/users/kbadger1/espresso/pseudo/pslibrary.1.0.0/pbe/PSEUDOPOTENTIALS/'
/
&SYSTEM
   ecutwfc          = 40
   ecutrho          = 410
   nosym            = .true.
   occupations      = 'smearing'
   degauss          = 0.001
   smearing         = 'marzari-vanderbilt'
   nspin            = 1
   input_dft        = 'beef-vdw'
   ntyp             = 3
   nat              = 39
   ibrav            = 0
/
&ELECTRONS
   conv_thr         = 1e-08
   mixing_mode      = 'local-TF'
/
&IONS
/
&CELL
/
&FCP
/
&RISM
/
ATOMIC_SPECIES
Pt 195.084 Pt.pbe-n-kjpaw_psl.1.0.0.UPF
O 15.999 O.pbe-nl-kjpaw_psl.1.0.0.UPF
H 1.008 H.pbe-kjpaw_psl.1.0.0.UPF

K_POINTS automatic
5 5 1  0 0 0

CELL_PARAMETERS angstrom
8.48528137423857 0.00000000000000 0.00000000000000
4.24264068711929 7.34846922834953 0.00000000000000
0.00000000000000 0.00000000000000 23.92820323027551

ATOMIC_POSITIONS angstrom
Pt 0.0000000000 0.0000000000 8.5000000000   0 0 0
Pt 2.8284271247 0.0000000000 8.5000000000   0 0 0
Pt 5.6568542495 0.0000000000 8.5000000000   0 0 0
Pt 1.4142135624 2.4494897428 8.5000000000   0 0 0
Pt 4.2426406871 2.4494897428 8.5000000000   0 0 0
Pt 7.0710678119 2.4494897428 8.5000000000   0 0 0
Pt 2.8284271247 4.8989794856 8.5000000000   0 0 0
Pt 5.6568542495 4.8989794856 8.5000000000   0 0 0
Pt 8.4852813742 4.8989794856 8.5000000000   0 0 0
Pt 1.4142135624 0.8164965809 10.8094010768   0 0 0
Pt 4.2426406871 0.8164965809 10.8094010768   0 0 0
Pt 7.0710678119 0.8164965809 10.8094010768   0 0 0
Pt 2.8284271247 3.2659863237 10.8094010768   0 0 0
Pt 5.6568542495 3.2659863237 10.8094010768   0 0 0
Pt 8.4852813742 3.2659863237 10.8094010768   0 0 0
Pt 4.2426406871 5.7154760665 10.8094010768   0 0 0
Pt 7.0710678119 5.7154760665 10.8094010768   0 0 0
Pt 9.8994949366 5.7154760665 10.8094010768   0 0 0
Pt -0.0257495379 1.6572617115 13.0825927761  
Pt 2.8167708208 1.6689382667 13.1356137484  
Pt 5.6106145136 1.6536660261 13.1684264244  
Pt 1.3911075603 4.1126845295 13.0939850281  
Pt 4.2183084042 4.0985879351 13.1277205463  
Pt 7.0502558161 4.1085556139 13.0908287375  
Pt 2.7949236553 6.5733600120 13.1076053892  
Pt 5.6347340880 6.5621385981 13.0803677736  
Pt 8.4720517334 6.5683130452 13.1264194097  
Pt -0.0336003760 0.0499356928 15.4259970159  
Pt 2.7736185863 0.0355234422 15.4213812544  
Pt 5.6245222705 0.0273350619 15.5651498803  
Pt 1.3512709123 2.5007693123 15.4069370321  
Pt 4.2183018031 2.5073096691 15.5557712861  
Pt 7.0470553238 2.4995930000 15.4189647418  
Pt 2.7804886345 4.9653507145 15.4124976165  
Pt 5.6272601782 4.9681489900 15.4139166527  
Pt 8.4377755076 4.9450958100 15.4302597245  
O 4.0234773239 2.5965496683 17.5557343031  
H 4.8568564824 2.9563027099 17.9037568443  
H 5.6319364207 -0.0386095380 17.1187306668  

