&CONTROL
   tprnfor          = .true.
   pseudo_dir       = '/users/kbadger1/espresso/pseudo/pslibrary.1.0.0/pbe/PSEUDOPOTENTIALS/'
/
&SYSTEM
   ecutwfc          = 40
   ecutrho          = 410
   nosym            = .true.
   occupations      = 'smearing'
   degauss          = 0.001
   smearing         = 'marzari-vanderbilt'
   nspin            = 1
   input_dft        = 'beef-vdw'
   ntyp             = 4
   nat              = 41
   ibrav            = 0
/
&ELECTRONS
   mixing_mode      = 'local-TF'
/
&IONS
/
&CELL
/
&FCP
/
&RISM
/
ATOMIC_SPECIES
Pt 195.084 Pt.pbe-n-kjpaw_psl.1.0.0.UPF
O 15.999 O.pbe-nl-kjpaw_psl.1.0.0.UPF
H 1.008 H.pbe-kjpaw_psl.1.0.0.UPF
C 12.011 C.pbe-n-kjpaw_psl.1.0.0.UPF

K_POINTS automatic
5 5 1  0 0 0

CELL_PARAMETERS angstrom
8.48528137423857 0.00000000000000 0.00000000000000
4.24264068711929 7.34846922834953 0.00000000000000
0.00000000000000 0.00000000000000 23.92820323027551

ATOMIC_POSITIONS angstrom
Pt 0.0000000000 0.0000000000 8.5000000000   0 0 0
Pt 2.8284271247 0.0000000000 8.5000000000   0 0 0
Pt 5.6568542495 0.0000000000 8.5000000000   0 0 0
Pt 1.4142135624 2.4494897428 8.5000000000   0 0 0
Pt 4.2426406871 2.4494897428 8.5000000000   0 0 0
Pt 7.0710678119 2.4494897428 8.5000000000   0 0 0
Pt 2.8284271247 4.8989794856 8.5000000000   0 0 0
Pt 5.6568542495 4.8989794856 8.5000000000   0 0 0
Pt 8.4852813742 4.8989794856 8.5000000000   0 0 0
Pt 1.4142135624 0.8164965809 10.8094010768   0 0 0
Pt 4.2426406871 0.8164965809 10.8094010768   0 0 0
Pt 7.0710678119 0.8164965809 10.8094010768   0 0 0
Pt 2.8284271247 3.2659863237 10.8094010768   0 0 0
Pt 5.6568542495 3.2659863237 10.8094010768   0 0 0
Pt 8.4852813742 3.2659863237 10.8094010768   0 0 0
Pt 4.2426406871 5.7154760665 10.8094010768   0 0 0
Pt 7.0710678119 5.7154760665 10.8094010768   0 0 0
Pt 9.8994949366 5.7154760665 10.8094010768   0 0 0
Pt -0.0044632366 1.5757028508 13.1325618071  
Pt 2.8436304144 1.6449382817 13.1135138525  
Pt 5.6322250237 1.6477065371 13.1241867338  
Pt 1.4359678448 4.1095330796 13.1395783295  
Pt 4.2147109967 4.0848117179 13.1574846618  
Pt 7.0996218674 4.0612692799 13.0638370385  
Pt 2.8223762926 6.4865501108 13.1599037088  
Pt 5.6504531562 6.5316759741 13.0797550912  
Pt 8.4797541184 6.5258277211 13.0789784229  
Pt -0.0134138118 0.0936823437 15.4449407076  
Pt 2.8289153683 0.0088645820 15.3976181356  
Pt 5.6206278368 0.0101723571 15.3821752234  
Pt 1.3858874140 2.4942899304 15.3691825018  
Pt 4.2719591782 2.4393690369 15.5903268240  
Pt 7.0552121141 2.4873304671 15.4395943383  
Pt 2.7536125107 4.7646862123 15.9975655828  
Pt 5.7223047046 4.8964084939 15.3209003612  
Pt 8.4729559133 4.9188022932 15.4465737170  
O 3.8358070558 6.3319602596 17.2287810376  
H 3.1601788778 6.8286220223 17.7207498793  
H 4.3332968919 3.8283421537 17.8745235060  
H 2.8583600502 2.7636624164 17.8203321312  
C 3.5686433928 3.3631642761 17.2523574573  

