Pt H 
 1.0000000000000000
     8.4683100000000007    0.0000000000000000    0.0000000000000000
     4.2341550000000012    7.3337715871217997    0.0000000000000000
     0.0000000000000000    0.0000000000000000   24.9656619900000010
 Pt  H  
  36   1
Selective dynamics
Cartesian
  0.0000000000000000  0.0000000000000000  8.5000000000000000   F   F   F
  2.8284271247461903  0.0000000000000000  8.5000000000000000   F   F   F
  5.6568542494923806  0.0000000000000000  8.5000000000000000   F   F   F
  1.4142135623730951  2.4494897427831779  8.5000000000000000   F   F   F
  4.2426406871192857  2.4494897427831779  8.5000000000000000   F   F   F
  7.0710678118654755  2.4494897427831779  8.5000000000000000   F   F   F
  2.8284271247461903  4.8989794855663558  8.5000000000000000   F   F   F
  5.6568542494923806  4.8989794855663558  8.5000000000000000   F   F   F
  8.4852813742385713  4.8989794855663558  8.5000000000000000   F   F   F
  1.4142135623730951  0.8164965809277259 10.8094010767585029   F   F   F
  4.2426406871192848  0.8164965809277259 10.8094010767585029   F   F   F
  7.0710678118654755  0.8164965809277259 10.8094010767585029   F   F   F
  2.8284271247461903  3.2659863237109037 10.8094010767585029   F   F   F
  5.6568542494923806  3.2659863237109037 10.8094010767585029   F   F   F
  8.4852813742385713  3.2659863237109037 10.8094010767585029   F   F   F
  4.2426406871192857  5.7154760664940820 10.8094010767585029   F   F   F
  7.0710678118654755  5.7154760664940820 10.8094010767585029   F   F   F
  9.8994949366116671  5.7154760664940820 10.8094010767585029   F   F   F
  0.0154081940337114  1.6381286322931774 13.1057022670511767   T   T   T
  2.8369927357330855  1.6375627106907626 13.1037653931071763   T   T   T
  5.6600093792584207  1.6364649019830644 13.0860985276642374   T   T   T
  1.4272434148749584  4.0684933515597983 13.1189572950913345   T   T   T
  4.2493958041877944  4.0838823338882699 13.0886615348230375   T   T   T
  7.0706141391701127  4.0841783626587294 13.0876030392016105   T   T   T
  2.8420857244699906  6.5292797457894673 13.0996642161924033   T   T   T
  5.6605307802159377  6.5325338454832291 13.1050930337495810   T   T   T
  8.4811556504534789  6.5278106884312992 13.0956698057157457   T   T   T
 -0.0028879928350095 -0.0023982765203276 15.4439914250502710   T   T   T
  2.8575291196274599 -0.0016001999210096 15.4411172853522611   T   T   T
  5.6614751047243761  0.0156190029485824 15.4254118922814865   T   T   T
  1.4273461059219748  2.4877288107168467 15.4751339854026693   T   T   T
  4.2658523855914874  2.4602882821989902 15.4158054321535722   T   T   T
  7.0575238529951001  2.4599706276751867 15.4141103169703726   T   T   T
  2.8466881767454630  4.9127371003079716 15.4220448033344262   T   T   T
  5.6615322739976470  4.8970764667574338 15.4175601728779466   T   T   T
  8.4775645062903315  4.9133056102793624 15.4201039510409288   T   T   T
  1.4267833475958605  1.3995458688570133 16.6840020283747705   T   T   T
