Pt H 
 1.0000000000000000
     8.4683100000000007    0.0000000000000000    0.0000000000000000
     4.2341550000000012    7.3337715871217997    0.0000000000000000
     0.0000000000000000    0.0000000000000000   24.9656619900000010
 Pt  H  
  36   1
Selective dynamics
Cartesian
  0.0000000000000000  0.0000000000000000  8.5000000000000000   F   F   F
  2.8284271247461903  0.0000000000000000  8.5000000000000000   F   F   F
  5.6568542494923806  0.0000000000000000  8.5000000000000000   F   F   F
  1.4142135623730951  2.4494897427831779  8.5000000000000000   F   F   F
  4.2426406871192857  2.4494897427831779  8.5000000000000000   F   F   F
  7.0710678118654755  2.4494897427831779  8.5000000000000000   F   F   F
  2.8284271247461903  4.8989794855663558  8.5000000000000000   F   F   F
  5.6568542494923806  4.8989794855663558  8.5000000000000000   F   F   F
  8.4852813742385713  4.8989794855663558  8.5000000000000000   F   F   F
  1.4142135623730951  0.8164965809277259 10.8094010767585029   F   F   F
  4.2426406871192848  0.8164965809277259 10.8094010767585029   F   F   F
  7.0710678118654755  0.8164965809277259 10.8094010767585029   F   F   F
  2.8284271247461903  3.2659863237109037 10.8094010767585029   F   F   F
  5.6568542494923806  3.2659863237109037 10.8094010767585029   F   F   F
  8.4852813742385713  3.2659863237109037 10.8094010767585029   F   F   F
  4.2426406871192857  5.7154760664940820 10.8094010767585029   F   F   F
  7.0710678118654755  5.7154760664940820 10.8094010767585029   F   F   F
  9.8994949366116671  5.7154760664940820 10.8094010767585029   F   F   F
  0.0236738897357653  1.6454513270107107 13.1045205457179694   T   T   T
  2.8383751405033264  1.6395973470812408 13.1223408898798901   T   T   T
  5.6602205217947006  1.6418109146797226 13.0956294183017512   T   T   T
  1.4297437890209783  4.0791931399406147 13.1042992378976990   T   T   T
  4.2513375114748557  4.0822302784913429 13.0951871844657255   T   T   T
  7.0747970721983977  4.0857960448693351 13.0900996464258785   T   T   T
  2.8413571864947511  6.5304616062661118 13.0836528720314025   T   T   T
  5.6702536601275613  6.5333523434929779 13.1047145695653224   T   T   T
  8.4808974290028694  6.5338981963929594 13.1044539170931547   T   T   T
  0.0077255967254614  0.0059020247028956 15.4133194082819074   T   T   T
  2.8532481434455224 -0.0110899168794979 15.4925395892626767   T   T   T
  5.6783443780178837  0.0106127827534335 15.4184203499564809   T   T   T
  1.4152601104859270  2.4787943475558016 15.4920746633362789   T   T   T
  4.2872057066681801  2.4773414931104480 15.4598298834001202   T   T   T
  7.0789657046740482  2.4584617266905910 15.4210435223015843   T   T   T
  2.8469282493731605  4.9145018404896810 15.4181293633554599   T   T   T
  5.6672272003241382  4.9037829468625427 15.4209758578550726   T   T   T
  8.4933827999417844  4.9052948186584775 15.4219563100630914   T   T   T
  2.6667825576458770  1.5412186639947811 16.3860280569258414   T   T   T
