&CONTROL
   tprnfor          = .true.
   pseudo_dir       = '/users/kbadger1/espresso/pseudo/pslibrary.1.0.0/pbe/PSEUDOPOTENTIALS/'
/
&SYSTEM
   ecutwfc          = 40
   ecutrho          = 410
   nosym            = .true.
   occupations      = 'smearing'
   degauss          = 0.02
   smearing         = 'marzari-vanderbilt'
   nspin            = 1
   input_dft        = 'beef-vdw'
   ntyp             = 3
   nat              = 39
   ibrav            = 0
/
&ELECTRONS
   mixing_mode      = 'local-TF'
/
&IONS
/
&CELL
/
&FCP
/
&RISM
/
ATOMIC_SPECIES
Pt 195.084 Pt.pbe-n-kjpaw_psl.1.0.0.UPF
O 15.999 O.pbe-nl-kjpaw_psl.1.0.0.UPF
H 1.008 H.pbe-kjpaw_psl.1.0.0.UPF

K_POINTS automatic
5 5 1  0 0 0

CELL_PARAMETERS angstrom
8.48528137423857 0.00000000000000 0.00000000000000
4.24264068711929 7.34846922834953 0.00000000000000
0.00000000000000 0.00000000000000 23.92820323027551

ATOMIC_POSITIONS angstrom
Pt 0.0000000000 0.0000000000 8.5000000000   0 0 0
Pt 2.8284271247 0.0000000000 8.5000000000   0 0 0
Pt 5.6568542495 0.0000000000 8.5000000000   0 0 0
Pt 1.4142135624 2.4494897428 8.5000000000   0 0 0
Pt 4.2426406871 2.4494897428 8.5000000000   0 0 0
Pt 7.0710678119 2.4494897428 8.5000000000   0 0 0
Pt 2.8284271247 4.8989794856 8.5000000000   0 0 0
Pt 5.6568542495 4.8989794856 8.5000000000   0 0 0
Pt 8.4852813742 4.8989794856 8.5000000000   0 0 0
Pt 1.4142135624 0.8164965809 10.8094010768   0 0 0
Pt 4.2426406871 0.8164965809 10.8094010768   0 0 0
Pt 7.0710678119 0.8164965809 10.8094010768   0 0 0
Pt 2.8284271247 3.2659863237 10.8094010768   0 0 0
Pt 5.6568542495 3.2659863237 10.8094010768   0 0 0
Pt 8.4852813742 3.2659863237 10.8094010768   0 0 0
Pt 4.2426406871 5.7154760665 10.8094010768   0 0 0
Pt 7.0710678119 5.7154760665 10.8094010768   0 0 0
Pt 9.8994949366 5.7154760665 10.8094010768   0 0 0
Pt -0.0067937951 1.6283142760 13.0778432366  
Pt 2.8386245855 1.6363199251 13.1341691117  
Pt 5.6360659838 1.6250369786 13.1452329001  
Pt 1.4070776715 4.0779178345 13.0846256507  
Pt 4.2380733374 4.0688165908 13.1050861799  
Pt 7.0669536913 4.0762996921 13.0816081051  
Pt 2.8121239855 6.5389279090 13.0933125746  
Pt 5.6517504112 6.5329734837 13.0744752706  
Pt 8.4896174231 6.5348804529 13.1096711241  
Pt -0.0134257118 -0.0166098321 15.4124903352  
Pt 2.7973211138 -0.0367299614 15.4098626411  
Pt 5.6515979745 -0.0375352572 15.5321459515  
Pt 1.3731910148 2.4346115292 15.4050984468  
Pt 4.2072857812 2.4321951442 15.5289423500  
Pt 7.0658424457 2.4354205042 15.4002347542  
Pt 2.8081921476 4.8973600242 15.3896076535  
Pt 5.6471705007 4.8972802311 15.3973822280  
Pt 8.4621191754 4.8794843196 15.4144596321  
O 4.2547794253 2.4703721775 17.5382230394  
H 3.8124990532 3.2899565674 17.8173418278  
H 5.6716175943 -0.0738816941 17.0877594771  

