&CONTROL
   tprnfor          = .true.
   pseudo_dir       = '/users/kbadger1/espresso/pseudo/pslibrary.1.0.0/pbe/PSEUDOPOTENTIALS/'
/
&SYSTEM
   ecutwfc          = 40
   ecutrho          = 410
   nosym            = .true.
   occupations      = 'smearing'
   degauss          = 0.001
   smearing         = 'marzari-vanderbilt'
   nspin            = 1
   input_dft        = 'beef-vdw'
   ntyp             = 3
   nat              = 39
   ibrav            = 0
/
&ELECTRONS
   mixing_mode      = 'local-TF'
/
&IONS
/
&CELL
/
&FCP
/
&RISM
/
ATOMIC_SPECIES
Pt 195.084 Pt.pbe-n-kjpaw_psl.1.0.0.UPF
O 15.999 O.pbe-nl-kjpaw_psl.1.0.0.UPF
H 1.008 H.pbe-kjpaw_psl.1.0.0.UPF

K_POINTS automatic
5 5 1  0 0 0

CELL_PARAMETERS angstrom
8.48528137423857 0.00000000000000 0.00000000000000
4.24264068711929 7.34846922834953 0.00000000000000
0.00000000000000 0.00000000000000 23.92820323027551

ATOMIC_POSITIONS angstrom
Pt 0.0000000000 0.0000000000 8.5000000000   0 0 0
Pt 2.8284271247 0.0000000000 8.5000000000   0 0 0
Pt 5.6568542495 0.0000000000 8.5000000000   0 0 0
Pt 1.4142135624 2.4494897428 8.5000000000   0 0 0
Pt 4.2426406871 2.4494897428 8.5000000000   0 0 0
Pt 7.0710678119 2.4494897428 8.5000000000   0 0 0
Pt 2.8284271247 4.8989794856 8.5000000000   0 0 0
Pt 5.6568542495 4.8989794856 8.5000000000   0 0 0
Pt 8.4852813742 4.8989794856 8.5000000000   0 0 0
Pt 1.4142135624 0.8164965809 10.8094010768   0 0 0
Pt 4.2426406871 0.8164965809 10.8094010768   0 0 0
Pt 7.0710678119 0.8164965809 10.8094010768   0 0 0
Pt 2.8284271247 3.2659863237 10.8094010768   0 0 0
Pt 5.6568542495 3.2659863237 10.8094010768   0 0 0
Pt 8.4852813742 3.2659863237 10.8094010768   0 0 0
Pt 4.2426406871 5.7154760665 10.8094010768   0 0 0
Pt 7.0710678119 5.7154760665 10.8094010768   0 0 0
Pt 9.8994949366 5.7154760665 10.8094010768   0 0 0
Pt -0.0050916153 1.5586689150 13.0903520464  
Pt 2.8407348909 1.5638154082 13.1491770198  
Pt 5.6284846216 1.5535949489 13.1724731207  
Pt 1.4122638948 4.0055193508 13.0974651585  
Pt 4.2424325708 4.0002355675 13.1129463474  
Pt 7.0691990745 4.0057140755 13.0920880809  
Pt 2.8140848764 6.4691612229 13.1073271582  
Pt 5.6528984801 6.4631660146 13.0848832327  
Pt 8.4960884339 6.4577887410 13.1248654779  
Pt 0.0004063938 -0.1592430815 15.4275676366  
Pt 2.8093939195 -0.1812763635 15.4250864634  
Pt 5.6638950218 -0.1757406738 15.5604531231  
Pt 1.3880725586 2.2920397528 15.4231466782  
Pt 4.2382629647 2.2836851027 15.5626046238  
Pt 7.0812270277 2.2955825872 15.4242000540  
Pt 2.8201555182 4.7534331388 15.4093055862  
Pt 5.6591323596 4.7540566979 15.4176689686  
Pt 8.4766342583 4.7366383288 15.4344903730  
O 4.1447997085 2.3149856554 17.5686770505  
H 4.0637495552 3.2462216611 17.8358064798  
H 5.6805000073 -0.2368903889 17.1146694215  

